Node Number,Equivalent (Von-mises) Stress  (Pa),Equivalent Elastic Strain (m/m)
0,1235949516,5.68E-03
1,1229508770,5.65E-03
2,1235949493,5.68E-03
3,754523849,3.44E-03
4,747115184.4,3.41E-03
5,754523826,3.44E-03
6,1152400059,5.30E-03
7,1138294734,5.23E-03
8,1152400036,5.30E-03
9,895958734.2,4.10E-03
10,899881381.4,4.11E-03
11,895958711.2,4.10E-03
12,1020661641,4.67E-03
13,1020817412,4.67E-03
14,1020661618,4.67E-03
15,859941213,3.93E-03
16,850498099.8,3.89E-03
17,859941190,3.93E-03
18,1231868699,5.66E-03
19,1236538676,5.68E-03
20,1231868676,5.66E-03
21,1193397430,5.48E-03
22,1196138655,5.49E-03
23,1193397407,5.48E-03
24,441264989.4,2.02E-03
25,440143533.1,2.01E-03
26,441264966.4,2.02E-03
27,1257341865,5.78E-03
28,1258588744,5.78E-03
29,1257341842,5.78E-03
30,247823596,1.12E-03
31,246247460,1.11E-03
32,247823573,1.12E-03
33,492310099,2.23E-03
34,484508610,2.19E-03
35,492310076,2.23E-03
36,779539202,3.58E-03
37,772674806,3.55E-03
38,779539179.1,3.58E-03
39,770167457.3,3.54E-03
40,771034353.7,3.54E-03
41,770167434.3,3.54E-03
42,777647696.9,3.54E-03
43,778664128.8,3.55E-03
44,777647673.9,3.54E-03
45,994701247.8,4.57E-03
46,985082948.3,4.52E-03
47,994701224.8,4.57E-03
48,788117792,3.62E-03
49,788550800.6,3.63E-03
50,788117769,3.62E-03
51,840304037,3.86E-03
52,839979477.3,3.86E-03
53,840304014,3.86E-03
54,836973663.3,3.81E-03
55,837189381,3.82E-03
56,836973640.3,3.81E-03
57,807943716.5,3.68E-03
58,808440836.6,3.68E-03
59,807943693.5,3.68E-03
60,796203166.2,3.63E-03
61,796873390.2,3.63E-03
62,796203143.3,3.63E-03
63,808681235.2,3.68E-03
64,809200015,3.69E-03
65,808681212.2,3.68E-03
66,837738757.7,3.82E-03
67,837954475.4,3.82E-03
68,837738734.7,3.82E-03
69,787152794.8,3.62E-03
70,787412178.9,3.62E-03
71,787152771.8,3.62E-03
72,840109294.4,3.87E-03
73,840000116.9,3.87E-03
74,840109271.4,3.87E-03
75,854034963.5,3.93E-03
76,853882813.6,3.93E-03
77,854034940.5,3.93E-03
78,1147021139,5.27E-03
79,1139910157,5.24E-03
80,1147021116,5.27E-03
81,843830986.4,3.84E-03
82,843981725.1,3.84E-03
83,843830963.4,3.84E-03
84,818737036.6,3.73E-03
85,819082538.9,3.73E-03
86,818737013.6,3.73E-03
87,869797779.4,3.97E-03
88,869753754.4,3.97E-03
89,869797756.4,3.97E-03
90,882005630.4,4.02E-03
91,881701689.2,4.02E-03
92,882005607.4,4.02E-03
93,981196258.9,4.49E-03
94,977839517,4.47E-03
95,981196235.9,4.49E-03
96,1134722799,5.20E-03
97,1129443030,5.18E-03
98,1134722776,5.20E-03
99,864712037.6,3.98E-03
100,864472901.9,3.98E-03
101,864712014.6,3.98E-03
102,908650510.7,4.18E-03
103,908064993.7,4.17E-03
104,908650487.8,4.18E-03
105,947595607.2,4.35E-03
106,946424931.6,4.35E-03
107,947595584.2,4.35E-03
108,935090117.4,4.28E-03
109,939400730.1,4.30E-03
110,935090094.4,4.28E-03
111,916904753.2,4.19E-03
112,916406221.9,4.18E-03
113,916904730.2,4.19E-03
114,895543010.2,4.09E-03
115,895347540.9,4.08E-03
116,895542987.2,4.09E-03
117,877076809,4.00E-03
118,877054617.2,4.00E-03
119,877076786,4.00E-03
120,864200789.5,3.94E-03
121,864221917.1,3.94E-03
122,864200766.5,3.94E-03
123,850147858.7,3.87E-03
124,850255451.5,3.87E-03
125,850147835.7,3.87E-03
126,838760284.3,3.82E-03
127,838932682.7,3.82E-03
128,838760261.3,3.82E-03
129,849882975.3,3.87E-03
130,849990568.1,3.87E-03
131,849882952.3,3.87E-03
132,863755876.9,3.93E-03
133,863777004.5,3.93E-03
134,863755853.9,3.93E-03
135,876565024.5,3.99E-03
136,876542832.8,3.99E-03
137,876565001.6,3.99E-03
138,882876236.3,4.02E-03
139,882832384.9,4.02E-03
140,882876213.4,4.02E-03
141,916345656.1,4.18E-03
142,915868784.4,4.18E-03
143,916345633.1,4.18E-03
144,951272576.2,4.35E-03
145,950167920.8,4.34E-03
146,951272553.2,4.35E-03
147,931074571.6,4.26E-03
148,935839864.2,4.29E-03
149,931074548.6,4.26E-03
150,995765047.2,4.57E-03
151,993640651.4,4.56E-03
152,995765024.2,4.57E-03
153,948187596.8,4.36E-03
154,947016921.1,4.35E-03
155,948187573.8,4.36E-03
156,865673804.7,3.98E-03
157,865412835.8,3.98E-03
158,865673781.7,3.98E-03
159,827996872.3,3.81E-03
160,827800708.9,3.81E-03
161,827996849.3,3.81E-03
162,807568248.5,3.72E-03
163,807480210,3.72E-03
164,807568225.5,3.72E-03
165,792371565.6,3.65E-03
166,792348679.7,3.65E-03
167,792371542.6,3.65E-03
168,806641329.1,3.71E-03
169,806553464.2,3.71E-03
170,806641306.1,3.71E-03
171,827141163.2,3.81E-03
172,826944999.8,3.81E-03
173,827141140.2,3.81E-03
174,864686379.9,3.94E-03
175,864707507.5,3.94E-03
176,864686356.9,3.94E-03
177,848306532.2,3.86E-03
178,848392465.4,3.86E-03
179,848306509.2,3.86E-03
180,845719525.8,3.85E-03
181,845805285.4,3.85E-03
182,845719502.8,3.85E-03
183,848380551.8,3.86E-03
184,848444825.3,3.86E-03
185,848380528.8,3.86E-03
186,886770498.4,4.04E-03
187,886726647,4.04E-03
188,886770475.4,4.04E-03
189,908411648.5,4.14E-03
190,908216352.8,4.14E-03
191,908411625.6,4.14E-03
192,927682261.2,4.24E-03
193,927292201.9,4.23E-03
194,927682238.2,4.24E-03
195,952269876.8,4.35E-03
196,951555095.7,4.35E-03
197,952269853.8,4.35E-03
198,977454444.2,4.47E-03
199,976610399.1,4.47E-03
200,977454421.2,4.47E-03
201,944906380.4,4.33E-03
202,945315473.5,4.34E-03
203,944906357.5,4.33E-03
204,973831769.5,4.47E-03
205,972963288.3,4.47E-03
206,973831746.5,4.47E-03
207,948440596.3,4.36E-03
208,947637961.8,4.35E-03
209,948440573.3,4.36E-03
210,922444346.8,4.24E-03
211,921923461.7,4.24E-03
212,922444323.8,4.24E-03
213,900726160.9,4.14E-03
214,900357067.2,4.14E-03
215,900726138,4.14E-03
216,870813272.9,4.01E-03
217,870378853,4.01E-03
218,870813249.9,4.01E-03
219,858361125.3,3.95E-03
220,857882865.4,3.95E-03
221,858361102.3,3.95E-03
222,813232549.6,3.75E-03
223,813013858.9,3.75E-03
224,813232526.6,3.75E-03
225,783091876.2,3.61E-03
226,783024976.8,3.61E-03
227,783091853.2,3.61E-03
228,778729074.3,3.59E-03
229,778683834.6,3.59E-03
230,778729051.3,3.59E-03
231,794691581.9,3.66E-03
232,794581189.7,3.66E-03
233,794691558.9,3.66E-03
234,813368184.9,3.75E-03
235,813171327.4,3.75E-03
236,813368161.9,3.75E-03
237,834592994.5,3.84E-03
238,834266179,3.84E-03
239,834592971.6,3.84E-03
240,857578170.7,3.95E-03
241,857099910.8,3.95E-03
242,857578147.7,3.95E-03
243,870422275.8,4.01E-03
244,869987856,4.01E-03
245,870422252.8,4.01E-03
246,883564931,4.07E-03
247,883260642.7,4.06E-03
248,883564908,4.07E-03
249,900243146.7,4.14E-03
250,899895712.6,4.14E-03
251,900243123.7,4.14E-03
252,922130966.1,4.24E-03
253,921610254.5,4.24E-03
254,922130943.1,4.24E-03
255,971698827.2,4.46E-03
256,970614269.7,4.46E-03
257,971698804.2,4.46E-03
258,976340774.9,4.48E-03
259,975428800.8,4.48E-03
260,976340751.9,4.48E-03
261,975737554.5,4.47E-03
262,974915169.2,4.46E-03
263,975737531.5,4.47E-03
264,908794153.6,4.15E-03
265,908620517.6,4.15E-03
266,908794130.6,4.15E-03
267,895537123.9,4.08E-03
268,895471786.3,4.08E-03
269,895537100.9,4.08E-03
270,887027382.8,4.04E-03
271,886983704.9,4.04E-03
272,887027359.8,4.04E-03
273,887664997,4.04E-03
274,887664638.5,4.04E-03
275,887664974,4.04E-03
276,893713516.2,4.07E-03
277,893691498,4.07E-03
278,893713493.2,4.07E-03
279,901880866.9,4.11E-03
280,901858848.7,4.11E-03
281,901880844,4.11E-03
282,912664701.1,4.16E-03
283,912556044.2,4.16E-03
284,912664678.1,4.16E-03
285,925930028.4,4.23E-03
286,925713073,4.23E-03
287,925930005.4,4.23E-03
288,938951719.7,4.29E-03
289,938604979.7,4.29E-03
290,938951696.7,4.29E-03
291,945905402.4,4.33E-03
292,945493683.4,4.32E-03
293,945905379.4,4.33E-03
294,917392379.1,4.20E-03
295,917652110.3,4.20E-03
296,917392356.1,4.20E-03
297,894907806.4,4.10E-03
298,895730168.8,4.10E-03
299,894907783.4,4.10E-03
300,940197043.2,4.32E-03
301,939740963.6,4.31E-03
302,940197020.2,4.32E-03
303,932495417.6,4.28E-03
304,932060997.7,4.28E-03
305,932495394.6,4.28E-03
306,905143341,4.16E-03
307,904839052.8,4.16E-03
308,905143318,4.16E-03
309,894176514.5,4.11E-03
310,893828733.3,4.11E-03
311,894176491.5,4.11E-03
312,885899480,4.08E-03
313,885378247.9,4.08E-03
314,885899457.1,4.08E-03
315,879436479.5,4.05E-03
316,878763282.4,4.05E-03
317,879436456.5,4.05E-03
318,871889800.6,4.02E-03
319,871323635.3,4.02E-03
320,871889777.6,4.02E-03
321,842491589.1,3.88E-03
322,842206774,3.88E-03
323,842491566.1,3.88E-03
324,794359567.7,3.66E-03
325,794334356.5,3.66E-03
326,794359544.7,3.66E-03
327,767612590.2,3.54E-03
328,767652236.5,3.54E-03
329,767612567.2,3.54E-03
330,794184713.2,3.66E-03
331,794137825,3.66E-03
332,794184690.3,3.66E-03
333,815359644.3,3.76E-03
334,815291200.5,3.76E-03
335,815359621.3,3.76E-03
336,841359493.2,3.88E-03
337,841139622.5,3.88E-03
338,841359470.2,3.88E-03
339,870545360.6,4.01E-03
340,870022514.6,4.01E-03
341,870545337.6,4.01E-03
342,879067298.3,4.05E-03
343,878415761,4.05E-03
344,879067275.3,4.05E-03
345,885613814.5,4.08E-03
346,885092582.4,4.07E-03
347,885613791.5,4.08E-03
348,894019939.8,4.11E-03
349,893672158.6,4.11E-03
350,894019916.8,4.11E-03
351,905094370.9,4.16E-03
352,904768423,4.16E-03
353,905094347.9,4.16E-03
354,940240265,4.32E-03
355,939762525.8,4.31E-03
356,940240242,4.32E-03
357,934864647.6,4.29E-03
358,934581671.9,4.29E-03
359,934864624.6,4.29E-03
360,893495405.5,4.09E-03
361,894338907,4.10E-03
362,893495382.5,4.09E-03
363,894908229.2,4.10E-03
364,895752251.2,4.10E-03
365,894908206.2,4.10E-03
366,916877481.5,4.20E-03
367,917137212.7,4.20E-03
368,916877458.5,4.20E-03
369,938785745.9,4.30E-03
370,938547304.3,4.29E-03
371,938785722.9,4.30E-03
372,938756337.8,4.29E-03
373,938409597.8,4.29E-03
374,938756314.8,4.29E-03
375,925927154.2,4.23E-03
376,925710198.8,4.23E-03
377,925927131.2,4.23E-03
378,912830765.9,4.17E-03
379,912743768.6,4.16E-03
380,912830742.9,4.17E-03
381,902070326.4,4.11E-03
382,902026648.5,4.11E-03
383,902070303.4,4.11E-03
384,893648786.2,4.07E-03
385,893626768,4.07E-03
386,893648763.2,4.07E-03
387,887668542.6,4.04E-03
388,887646524.3,4.04E-03
389,887668519.6,4.04E-03
390,882942651.9,4.02E-03
391,882942293.3,4.02E-03
392,882942628.9,4.02E-03
393,871993343,3.97E-03
394,871992810.9,3.97E-03
395,871993320,3.97E-03
396,865628906.2,3.94E-03
397,865628374.1,3.94E-03
398,865628883.2,3.94E-03
399,859648964.2,3.91E-03
400,859648258.6,3.91E-03
401,859648941.2,3.91E-03
402,853627446.8,3.88E-03
403,853626567.7,3.88E-03
404,853627423.8,3.88E-03
405,855246205,3.89E-03
406,855245499.4,3.89E-03
407,855246182,3.89E-03
408,859608628.3,3.91E-03
409,859607922.7,3.91E-03
410,859608605.3,3.91E-03
411,865569009.6,3.94E-03
412,865568477.5,3.94E-03
413,865568986.6,3.94E-03
414,871910241.4,3.97E-03
415,871909709.3,3.97E-03
416,871910218.4,3.97E-03
417,877773051.3,3.99E-03
418,877751033,3.99E-03
419,877773028.3,3.99E-03
420,863022314.8,3.98E-03
421,873366851.7,4.03E-03
422,863022291.8,3.98E-03
423,826472013.9,3.81E-03
424,836729339.4,3.86E-03
425,826471990.9,3.81E-03
426,799496505.2,3.69E-03
427,809861903.5,3.73E-03
428,799496482.2,3.69E-03
429,779023847.1,3.59E-03
430,789367360.1,3.64E-03
431,779023824.1,3.59E-03
432,764494306.5,3.53E-03
433,774794378.7,3.57E-03
434,764494283.5,3.53E-03
435,755690176.1,3.48E-03
436,766011838.5,3.53E-03
437,755690153.1,3.48E-03
438,764494273.1,3.53E-03
439,774815987.6,3.57E-03
440,764494250.1,3.53E-03
441,778739496.6,3.59E-03
442,789126294.3,3.64E-03
443,778739473.6,3.59E-03
444,907064282.3,4.18E-03
445,916911253.8,4.23E-03
446,907064259.3,4.18E-03
447,896941324.4,4.13E-03
448,895877194.6,4.13E-03
449,896941301.4,4.13E-03
450,892451744.1,4.11E-03
451,891518630.9,4.11E-03
452,892451721.1,4.11E-03
453,891656147.8,4.10E-03
454,891069936.6,4.10E-03
455,891656124.8,4.10E-03
456,894589140.7,4.12E-03
457,894263019.2,4.11E-03
458,894589117.7,4.12E-03
459,900122336.8,4.14E-03
460,899926173.5,4.14E-03
461,900122313.8,4.14E-03
462,906676835.2,4.17E-03
463,906545824.4,4.17E-03
464,906676812.2,4.17E-03
465,911784473,4.19E-03
466,911653462.2,4.19E-03
467,911784450,4.19E-03
468,912086263.9,4.19E-03
469,911933766.9,4.19E-03
470,912086240.9,4.19E-03
471,904935908.7,4.15E-03
472,904826384.1,4.15E-03
473,904935885.7,4.15E-03
474,882184419.4,4.04E-03
475,882400137.1,4.04E-03
476,882184396.5,4.04E-03
477,883801693,4.05E-03
478,883995924.5,4.05E-03
479,883801670,4.05E-03
480,897243939.3,4.11E-03
481,897286553,4.11E-03
482,897243916.3,4.11E-03
483,912835526.7,4.18E-03
484,912748529.4,4.17E-03
485,912835503.7,4.18E-03
486,922283052.1,4.22E-03
487,922174395.1,4.22E-03
488,922283029.1,4.22E-03
489,923678380.9,4.22E-03
490,923612869.8,4.22E-03
491,923678357.9,4.22E-03
492,919508732.8,4.20E-03
493,919508374.2,4.20E-03
494,919508709.8,4.20E-03
495,912804033.9,4.17E-03
496,912825335,4.17E-03
497,912804010.9,4.17E-03
498,905490608,4.13E-03
499,905511909.1,4.13E-03
500,905490585,4.13E-03
501,898709476.7,4.10E-03
502,898730777.8,4.10E-03
503,898709453.7,4.10E-03
504,892533602,4.06E-03
505,892511757.3,4.06E-03
506,892533579,4.06E-03
507,887119460.4,4.04E-03
508,887097442.1,4.04E-03
509,887119437.4,4.04E-03
510,882437062.7,4.01E-03
511,882415044.5,4.01E-03
512,882437039.7,4.01E-03
513,878928407.3,4.00E-03
514,878949708.5,4.00E-03
515,878928384.4,4.00E-03
516,870491795.6,3.96E-03
517,870469603.8,3.96E-03
518,870491772.6,3.96E-03
519,866095266.5,3.94E-03
520,866051241.5,3.94E-03
521,866095243.5,3.94E-03
522,862131757.8,3.92E-03
523,862109392.5,3.92E-03
524,862131734.8,3.92E-03
525,858382424.8,3.90E-03
526,858338226.3,3.90E-03
527,858382401.8,3.90E-03
528,859373746.3,3.91E-03
529,859329721.3,3.91E-03
530,859373723.3,3.91E-03
531,862153450.9,3.92E-03
532,862109425.9,3.92E-03
533,862153427.9,3.92E-03
534,866035196.5,3.94E-03
535,866012831.2,3.94E-03
536,866035173.5,3.94E-03
537,870472111.5,3.96E-03
538,870449919.7,3.96E-03
539,870472088.5,3.96E-03
540,874902432.1,3.98E-03
541,874901900,3.98E-03
542,874902409.1,3.98E-03
543,878929201.5,4.00E-03
544,878928842.9,4.00E-03
545,878929178.5,4.00E-03
546,882393860,4.01E-03
547,882371841.7,4.01E-03
548,882393837,4.01E-03
549,887117494.1,4.04E-03
550,887095649.4,4.04E-03
551,887117471.2,4.04E-03
552,892535626.5,4.06E-03
553,892535268,4.06E-03
554,892535603.5,4.06E-03
555,905490549.6,4.13E-03
556,905511850.7,4.13E-03
557,905490526.6,4.13E-03
558,919508674.4,4.20E-03
559,919508315.8,4.20E-03
560,919508651.4,4.20E-03
561,882119382,4.04E-03
562,882313266.5,4.04E-03
563,882119359,4.04E-03
564,892125029.4,4.09E-03
565,892188955.8,4.09E-03
566,892125006.4,4.09E-03
567,904892531,4.15E-03
568,904783179.9,4.15E-03
569,904892508,4.15E-03
570,911762928.5,4.19E-03
571,911610258,4.19E-03
572,911762905.5,4.19E-03
573,894551489.7,4.12E-03
574,894247027.9,4.11E-03
575,894551466.7,4.12E-03
576,891644321.5,4.10E-03
577,891058110.2,4.10E-03
578,891644298.5,4.10E-03
579,892458974.7,4.11E-03
580,891525687.9,4.11E-03
581,892458951.7,4.11E-03
582,897444229.3,4.14E-03
583,896336797.4,4.13E-03
584,897444206.3,4.14E-03
585,907885297.6,4.19E-03
586,917710557.3,4.23E-03
587,907885274.6,4.19E-03
588,950994727.8,4.39E-03
589,959911599.6,4.43E-03
590,950994704.8,4.39E-03
591,900548743.5,4.15E-03
592,898553611.7,4.14E-03
593,900548720.5,4.15E-03
594,887780547.8,4.09E-03
595,886847261,4.08E-03
596,887780524.8,4.09E-03
597,883691985.4,4.07E-03
598,883148920,4.06E-03
599,883691962.4,4.07E-03
600,885772615.2,4.07E-03
601,885597938,4.07E-03
602,885772592.2,4.07E-03
603,889782171.7,4.09E-03
604,889802605.2,4.09E-03
605,889782148.7,4.09E-03
606,893036762.8,4.10E-03
607,893144008.5,4.10E-03
608,893036739.8,4.10E-03
609,893131295.8,4.10E-03
610,893260374.8,4.10E-03
611,893131272.9,4.10E-03
612,888677121.7,4.08E-03
613,888741221.7,4.08E-03
614,888677098.8,4.08E-03
615,879929818.4,4.03E-03
616,879885793.4,4.03E-03
617,879929795.4,4.03E-03
618,863773742.3,3.96E-03
619,863534606.7,3.95E-03
620,863773719.4,3.96E-03
621,866286319.6,3.96E-03
622,866047183.9,3.96E-03
623,866286296.6,3.96E-03
624,877245306,4.01E-03
625,877092809.1,4.01E-03
626,877245283,4.01E-03
627,892021776.2,4.08E-03
628,891977577.7,4.08E-03
629,892021753.2,4.08E-03
630,905074321.8,4.14E-03
631,905181914.6,4.14E-03
632,905074298.8,4.14E-03
633,913326920.4,4.17E-03
634,913521325.5,4.17E-03
635,913326897.4,4.17E-03
636,916148838.4,4.18E-03
637,916343243.4,4.18E-03
638,916148815.4,4.18E-03
639,914446485.3,4.17E-03
640,914619404.3,4.17E-03
641,914446462.3,4.17E-03
642,909668110.1,4.15E-03
643,909776223.5,4.15E-03
644,909668087.1,4.15E-03
645,903241516.5,4.12E-03
646,903284650.8,4.12E-03
647,903241493.5,4.12E-03
648,896438552.1,4.08E-03
649,896416707.4,4.08E-03
650,896438529.1,4.08E-03
651,889981101.6,4.05E-03
652,889915937.5,4.05E-03
653,889981078.6,4.05E-03
654,884692579.9,4.02E-03
655,884627415.8,4.02E-03
656,884692556.9,4.02E-03
657,881023155,4.00E-03
658,880979650.6,4.00E-03
659,881023132,4.00E-03
660,878921685.3,3.99E-03
661,878943159.9,3.99E-03
662,878921662.3,3.99E-03
663,876017071.4,3.98E-03
664,876038372.5,3.98E-03
665,876017048.4,3.98E-03
666,872512927.9,3.96E-03
667,872512569.3,3.96E-03
668,872512904.9,3.96E-03
669,868771569,3.95E-03
670,868749377.2,3.95E-03
671,868771546,3.95E-03
672,865179919,3.93E-03
673,865136067.5,3.93E-03
674,865179896,3.93E-03
675,862168221.7,3.92E-03
676,862124196.7,3.92E-03
677,862168198.7,3.92E-03
678,859435679.2,3.90E-03
679,859369994.5,3.90E-03
680,859435656.2,3.90E-03
681,862168255.1,3.92E-03
682,862124230.1,3.92E-03
683,862168232.1,3.92E-03
684,865179969.1,3.93E-03
685,865135944.2,3.93E-03
686,865179946.2,3.93E-03
687,868771635.8,3.95E-03
688,868749444,3.95E-03
689,868771612.8,3.95E-03
690,872491351.7,3.96E-03
691,872512652.9,3.96E-03
692,872491328.8,3.96E-03
693,875936086,3.98E-03
694,875957387.2,3.98E-03
695,875936063,3.98E-03
696,878902398.4,3.99E-03
697,878923873.1,3.99E-03
698,878902375.4,3.99E-03
699,881003537.9,4.00E-03
700,880960033.5,4.00E-03
701,881003514.9,4.00E-03
702,884692713.3,4.02E-03
703,884627375.7,4.02E-03
704,884692690.3,4.02E-03
705,889982623,4.05E-03
706,889917459,4.05E-03
707,889982600,4.05E-03
708,896418760.8,4.08E-03
709,896396916.1,4.08E-03
710,896418737.8,4.08E-03
711,903241475.8,4.12E-03
712,903284610.1,4.12E-03
713,903241452.8,4.12E-03
714,909689729.1,4.15E-03
715,909776182.8,4.15E-03
716,909689706.1,4.15E-03
717,913348539.3,4.17E-03
718,913542770.9,4.17E-03
719,913348516.4,4.17E-03
720,905117600.4,4.14E-03
721,905225019.7,4.14E-03
722,905117577.4,4.14E-03
723,892065054.9,4.08E-03
724,892020856.3,4.08E-03
725,892065031.9,4.08E-03
726,877310070.8,4.01E-03
727,877157573.9,4.01E-03
728,877310047.8,4.01E-03
729,866307765,3.97E-03
730,866068629.3,3.96E-03
731,866307742,3.97E-03
732,869809584.8,3.99E-03
733,869657261.4,3.99E-03
734,869809561.8,3.99E-03
735,879864798.6,4.03E-03
736,879820773.7,4.03E-03
737,879864775.6,4.03E-03
738,888612102,4.08E-03
739,888676375.4,4.08E-03
740,888612079,4.08E-03
741,892993402.7,4.10E-03
742,893100648.4,4.10E-03
743,892993379.7,4.10E-03
744,885751088.3,4.07E-03
745,885576411.1,4.07E-03
746,885751065.4,4.07E-03
747,883648798.8,4.07E-03
748,883105733.4,4.06E-03
749,883648775.8,4.07E-03
750,887419060.4,4.09E-03
751,886464287.5,4.08E-03
752,887419037.4,4.09E-03
753,900163514.2,4.15E-03
754,898125063,4.14E-03
755,900163491.2,4.15E-03
756,950602782.7,4.38E-03
757,959584598.9,4.42E-03
758,950602759.7,4.38E-03
759,1033275656,4.77E-03
760,1020432097,4.71E-03
761,1033275633,4.77E-03
762,906893367.3,4.18E-03
763,891359929.5,4.11E-03
764,906893344.3,4.18E-03
765,849612889.1,3.92E-03
766,834685072.2,3.85E-03
767,849612866.1,3.92E-03
768,815217323.2,3.76E-03
769,800765359.9,3.70E-03
770,815217300.2,3.76E-03
771,790963330.6,3.65E-03
772,776251104.1,3.58E-03
773,790963307.6,3.65E-03
774,773688997,3.57E-03
775,758933225.5,3.50E-03
776,773688974,3.57E-03
777,761768475,3.52E-03
778,746947603,3.45E-03
779,761768452,3.52E-03
780,754659630.5,3.48E-03
781,739838723.8,3.41E-03
782,754659607.6,3.48E-03
783,752275599.3,3.47E-03
784,737454657.9,3.40E-03
785,752275576.3,3.47E-03
786,754659613.8,3.48E-03
787,739817030.1,3.41E-03
788,754659590.8,3.48E-03
789,761746781.9,3.51E-03
790,746947569.6,3.45E-03
791,761746758.9,3.51E-03
792,773667304.5,3.57E-03
793,758911515.7,3.50E-03
794,773667281.5,3.57E-03
795,790919979.1,3.65E-03
796,776229377.6,3.58E-03
797,790919956.1,3.65E-03
798,813999368.9,3.76E-03
799,798680931.6,3.69E-03
800,813999345.9,3.76E-03
801,847505031.8,3.91E-03
802,831515873,3.84E-03
803,847505008.8,3.91E-03
804,906893441.4,4.18E-03
805,891360055.7,4.11E-03
806,906893418.4,4.18E-03
807,1032973519,4.77E-03
808,1020368199,4.71E-03
809,1032973496,4.77E-03
810,861842874,3.97E-03
811,872360549.5,4.02E-03
812,861842851,3.97E-03
813,826057706.8,3.81E-03
814,836466632.7,3.86E-03
815,826057683.8,3.81E-03
816,798927369.1,3.68E-03
817,809314322.9,3.73E-03
818,798927346.1,3.68E-03
819,860145771.8,3.91E-03
820,860080087.1,3.91E-03
821,860145748.8,3.91E-03
822,882852294.6,4.02E-03
823,882830276.4,4.02E-03
824,882852271.6,4.02E-03
825,860145755.1,3.91E-03
826,860080070.4,3.91E-03
827,860145732.1,3.91E-03
828,874883465.7,3.98E-03
829,874882933.6,3.98E-03
830,874883442.7,3.98E-03
831,859395389.2,3.91E-03
832,859329704.6,3.91E-03
833,859395366.2,3.91E-03
834,898667834.6,4.10E-03
835,898689309.2,4.10E-03
836,898667811.6,4.10E-03
837,752741049.5,3.47E-03
838,763041017.6,3.52E-03
839,752741026.5,3.47E-03
840,755690159.3,3.48E-03
841,765990162.1,3.53E-03
842,755690136.4,3.48E-03
843,877880399.2,3.99E-03
844,877880040.6,3.99E-03
845,877880376.2,3.99E-03
846,855246188.3,3.89E-03
847,855245482.7,3.89E-03
848,855246165.3,3.89E-03
849,881241464.5,4.01E-03
850,881241105.9,4.01E-03
851,881241441.5,4.01E-03
852,767612606.9,3.54E-03
853,767652253.3,3.54E-03
854,767612583.9,3.54E-03
855,855478797.7,3.89E-03
856,855521411.5,3.89E-03
857,855478774.7,3.89E-03
858,873439521.7,3.98E-03
859,873438989.7,3.98E-03
860,873439498.7,3.98E-03
861,889760644.8,4.09E-03
862,889759418.6,4.09E-03
863,889760621.8,4.09E-03
864,764033076.2,3.52E-03
865,764072705.2,3.52E-03
866,764033053.2,3.52E-03
867,778112892.2,3.59E-03
868,778087594.2,3.59E-03
869,778112869.2,3.59E-03
870,881507199,4.01E-03
871,881485007.3,4.01E-03
872,881507176,4.01E-03
873,816187637.7,3.76E-03
874,816054249.5,3.76E-03
875,816187614.7,3.76E-03
876,778112943,3.59E-03
877,778109304.7,3.59E-03
878,778112920,3.59E-03
879,864392391.3,3.93E-03
880,864413518.9,3.93E-03
881,864392368.3,3.93E-03
882,849502894.3,3.91E-03
883,849198432.5,3.91E-03
884,849502871.3,3.91E-03
885,873865361.1,3.98E-03
886,873864829,3.98E-03
887,873865338.1,3.98E-03
888,912804149.1,4.17E-03
889,912825450.2,4.17E-03
890,912804126.1,4.17E-03
891,914446444.6,4.17E-03
892,914619363.5,4.17E-03
893,914446421.6,4.17E-03
894,855383374.3,3.89E-03
895,855425988,3.89E-03
896,855383351.3,3.89E-03
897,895050485.6,4.08E-03
898,894963488.3,4.08E-03
899,895050462.6,4.08E-03
900,835206299.6,3.85E-03
901,834901143.7,3.85E-03
902,835206276.6,3.85E-03
903,795198811.6,3.66E-03
904,795088419.4,3.66E-03
905,795198788.6,3.66E-03
906,900100792.3,4.14E-03
907,899926288.6,4.14E-03
908,900100769.3,4.14E-03
909,782869362.5,3.61E-03
910,782802289.6,3.61E-03
911,782869339.5,3.61E-03
912,834373094.4,3.80E-03
913,834567152.4,3.80E-03
914,834373071.4,3.80E-03
915,916170457.3,4.18E-03
916,916364862.4,4.18E-03
917,916170434.3,4.18E-03
918,893087935.7,4.10E-03
919,893217014.7,4.10E-03
920,893087912.8,4.10E-03
921,838723228.8,3.82E-03
922,838895800.6,3.82E-03
923,838723205.8,3.82E-03
924,850435019.6,3.92E-03
925,850130557.9,3.91E-03
926,850434996.6,3.92E-03
927,883386286,4.03E-03
928,883320774.9,4.03E-03
929,883386263,4.03E-03
930,918823257.1,4.22E-03
931,918475649.4,4.22E-03
932,918823234.1,4.22E-03
933,883740198,4.07E-03
934,883414250,4.06E-03
935,883740175,4.07E-03
936,864384300.6,3.94E-03
937,864405254.7,3.94E-03
938,864384277.6,3.94E-03
939,906676950.4,4.17E-03
940,906524279.9,4.17E-03
941,906676927.4,4.17E-03
942,792796651.8,3.65E-03
943,792795425.5,3.65E-03
944,792796628.8,3.65E-03
945,787155581.6,3.62E-03
946,787176015,3.62E-03
947,787155558.6,3.62E-03
948,865123252.3,3.94E-03
949,865165866,3.94E-03
950,865123229.3,3.94E-03
951,923678322.6,4.22E-03
952,923612985,4.22E-03
953,923678299.6,4.22E-03
954,894427703.2,4.08E-03
955,894232233.9,4.08E-03
956,894427680.2,4.08E-03
957,825842934.7,3.76E-03
958,826145291.1,3.76E-03
959,825842911.7,3.76E-03
960,922282993.8,4.22E-03
961,922174336.8,4.22E-03
962,922282970.8,4.22E-03
963,918801694.9,4.22E-03
964,918454087.3,4.22E-03
965,918801671.9,4.22E-03
966,869853118.5,3.99E-03
967,869678961.8,3.99E-03
968,869853095.5,3.99E-03
969,932516979.8,4.28E-03
970,932082559.9,4.28E-03
971,932516956.8,4.28E-03
972,912878787.7,4.18E-03
973,912791616.9,4.18E-03
974,912878764.7,4.18E-03
975,863773528.1,3.96E-03
976,863556052.1,3.95E-03
977,863773505.1,3.96E-03
978,843350720.2,3.84E-03
979,843523118.5,3.84E-03
980,843350697.2,3.84E-03
981,814681085.4,3.75E-03
982,814723699.2,3.75E-03
983,814681062.4,3.75E-03
984,882070348.9,4.06E-03
985,881744748,4.06E-03
986,882070325.9,4.06E-03
987,841317631.7,3.87E-03
988,841186794.4,3.87E-03
989,841317608.7,3.87E-03
990,912021400,4.19E-03
991,911868729.5,4.19E-03
992,912021377,4.19E-03
993,794932479.2,3.66E-03
994,795126710.8,3.66E-03
995,794932456.2,3.66E-03
996,897287026.8,4.11E-03
997,897329814,4.11E-03
998,897287003.8,4.11E-03
999,825659467.1,3.76E-03
1000,825961823.5,3.76E-03
1001,825659444.1,3.76E-03
1002,883927450.5,4.07E-03
1003,883580016.4,4.06E-03
1004,883927427.5,4.07E-03
1005,815306851.1,3.75E-03
1006,815370951.1,3.75E-03
1007,815306828.2,3.75E-03
1008,795183008.3,3.66E-03
1009,795377239.8,3.66E-03
1010,795182985.3,3.66E-03
1011,869942202.2,3.97E-03
1012,869898177.3,3.97E-03
1013,869942179.3,3.97E-03
1014,892146747.4,4.09E-03
1015,892210673.8,4.09E-03
1016,892146724.4,4.09E-03
1017,939150066.8,4.30E-03
1018,938890139.1,4.30E-03
1019,939150043.8,4.30E-03
1020,883909933,4.05E-03
1021,884125650.7,4.05E-03
1022,883909910,4.05E-03
1023,945581277.2,4.32E-03
1024,945169558.1,4.32E-03
1025,945581254.2,4.32E-03
1026,948042832.7,4.36E-03
1027,947240198.2,4.35E-03
1028,948042809.7,4.36E-03
1029,910333293.5,4.18E-03
1030,909747602.9,4.18E-03
1031,910333270.6,4.18E-03
1032,818994745.8,3.77E-03
1033,819124345.4,3.77E-03
1034,818994722.8,3.77E-03
1035,914467068.6,4.19E-03
1036,914768730.9,4.19E-03
1037,914467045.6,4.19E-03
1038,934385802.4,4.29E-03
1039,934124486.4,4.29E-03
1040,934385779.4,4.29E-03
1041,927896348.3,4.24E-03
1042,927506289,4.24E-03
1043,927896325.3,4.24E-03
1044,874662498.8,4.02E-03
1045,874272092.4,4.02E-03
1046,874662475.8,4.02E-03
1047,855265133.4,3.93E-03
1048,855112983.5,3.93E-03
1049,855265110.4,3.93E-03
1050,819240747.6,3.77E-03
1051,819370347.2,3.77E-03
1052,819240724.6,3.77E-03
1053,951947157.4,4.35E-03
1054,951232202.8,4.35E-03
1055,951947134.4,4.35E-03
1056,973449033.2,4.45E-03
1057,972474683,4.45E-03
1058,973449010.2,4.45E-03
1059,788735180.6,3.63E-03
1060,789168189.2,3.63E-03
1061,788735157.6,3.63E-03
1062,831512860.9,3.79E-03
1063,831750064.7,3.79E-03
1064,831512837.9,3.79E-03
1065,974351878.6,4.46E-03
1066,973334382.5,4.45E-03
1067,974351855.6,4.46E-03
1068,875475927.8,4.02E-03
1069,875042202.1,4.02E-03
1070,875475904.8,4.02E-03
1071,776415481.8,3.57E-03
1072,776978622,3.57E-03
1073,776415458.8,3.57E-03
1074,774539227,3.56E-03
1075,775319311.2,3.56E-03
1076,774539204,3.56E-03
1077,883795702.5,4.03E-03
1078,883513421,4.03E-03
1079,883795679.5,4.03E-03
1080,788644508.2,3.59E-03
1081,789487836.1,3.60E-03
1082,788644485.2,3.59E-03
1083,825490885.9,3.76E-03
1084,825792895.3,3.76E-03
1085,825490862.9,3.76E-03
1086,893820224.8,4.09E-03
1087,894685385.9,4.10E-03
1088,893820201.8,4.09E-03
1089,913882875.1,4.19E-03
1090,914162877.8,4.19E-03
1091,913882852.2,4.19E-03
1092,998697102.5,4.57E-03
1093,996596795.8,4.56E-03
1094,998697079.5,4.57E-03
1095,764043469.4,3.48E-03
1096,765276324.6,3.48E-03
1097,764043446.4,3.48E-03
1098,971113748.6,4.46E-03
1099,970029191.1,4.45E-03
1100,971113725.6,4.46E-03
1101,823506686.3,3.78E-03
1102,823658292.6,3.79E-03
1103,823506663.3,3.78E-03
1104,994361443,4.57E-03
1105,992258706.8,4.56E-03
1106,994361420,4.57E-03
1107,951300073.4,4.35E-03
1108,950238737.3,4.34E-03
1109,951300050.4,4.35E-03
1110,914639258.5,4.18E-03
1111,913555742.2,4.17E-03
1112,914639235.5,4.18E-03
1113,912600806.2,4.19E-03
1114,911452310.9,4.19E-03
1115,912600783.2,4.19E-03
1116,825193100.9,3.76E-03
1117,825256680.2,3.76E-03
1118,825193077.9,3.76E-03
1119,912715919.1,4.19E-03
1120,911567423.8,4.19E-03
1121,912715896.1,4.19E-03
1122,821020886.1,3.77E-03
1123,821194152.1,3.77E-03
1124,821020863.1,3.77E-03
1125,946004729.9,4.34E-03
1126,946500461.7,4.34E-03
1127,946004706.9,4.34E-03
1128,750748019.8,3.45E-03
1129,751918325.3,3.45E-03
1130,750747996.8,3.45E-03
1131,981186209.6,4.51E-03
1132,978001009.8,4.49E-03
1133,981186186.6,4.51E-03
1134,947450806.2,4.34E-03
1135,947798043.7,4.34E-03
1136,947450783.2,4.34E-03
1137,722663205.1,3.29E-03
1138,724761927,3.30E-03
1139,722663182.1,3.29E-03
1140,829882638.6,3.79E-03
1141,829881238.8,3.79E-03
1142,829882615.6,3.79E-03
1143,906734821.4,4.15E-03
1144,908813792.5,4.16E-03
1145,906734798.4,4.15E-03
1146,906499838.1,4.15E-03
1147,908620740.3,4.16E-03
1148,906499815.1,4.15E-03
1149,906055166.7,4.15E-03
1150,908069158.8,4.16E-03
1151,906055143.7,4.15E-03
1152,1034160008,4.75E-03
1153,1031232989,4.74E-03
1154,1034159985,4.75E-03
1155,749319330.4,3.44E-03
1156,750641774.4,3.45E-03
1157,749319307.4,3.44E-03
1158,979273956.8,4.50E-03
1159,975937139.2,4.48E-03
1160,979273933.8,4.50E-03
1161,914581869.8,4.18E-03
1162,913498527,4.17E-03
1163,914581846.8,4.18E-03
1164,720225247.4,3.28E-03
1165,722345455.5,3.29E-03
1166,720225224.4,3.28E-03
1167,946832312.8,4.33E-03
1168,947179376.9,4.34E-03
1169,946832289.8,4.33E-03
1170,905374308.7,4.15E-03
1171,907473551.3,4.16E-03
1172,905374285.7,4.15E-03
1173,1033835177,4.73E-03
1174,1030999482,4.72E-03
1175,1033835154,4.73E-03
1176,826168450.6,3.79E-03
1177,825995682.3,3.79E-03
1178,826168427.6,3.79E-03
1179,699805410.3,3.21E-03
1180,702211359,3.22E-03
1181,699805387.3,3.21E-03
1182,996224224,4.56E-03
1183,994167236.6,4.55E-03
1184,996224201,4.56E-03
1185,1028624533,4.71E-03
1186,1026048581,4.70E-03
1187,1028624510,4.71E-03
1188,885193998.4,4.07E-03
1189,882400061.2,4.05E-03
1190,885193975.4,4.07E-03
1191,1031118864,4.73E-03
1192,1028430102,4.72E-03
1193,1031118841,4.73E-03
1194,1079917665,4.96E-03
1195,1073221514,4.93E-03
1196,1079917642,4.96E-03
1197,1006180267,4.61E-03
1198,1005554207,4.61E-03
1199,1006180244,4.61E-03
1200,1072484355,4.93E-03
1201,1066178079,4.90E-03
1202,1072484333,4.93E-03
1203,982339871.1,4.49E-03
1204,979199552.5,4.48E-03
1205,982339848.1,4.49E-03
1206,1001624486,4.60E-03
1207,1001252269,4.59E-03
1208,1001624463,4.60E-03
1209,1089744035,4.99E-03
1210,1082598931,4.96E-03
1211,1089744012,4.99E-03
1212,929227970,4.26E-03
1213,934055291.6,4.28E-03
1214,929227947,4.26E-03
1215,1009434598,4.62E-03
1216,1008917010,4.62E-03
1217,1009434575,4.62E-03
1218,850914261.8,3.88E-03
1219,848508637.2,3.87E-03
1220,850914238.8,3.88E-03
1221,646124481.9,2.94E-03
1222,648611863.4,2.95E-03
1223,646124458.9,2.94E-03
1224,651807780.8,2.96E-03
1225,653840309,2.97E-03
1226,651807757.8,2.96E-03
1227,859965553.1,3.93E-03
1228,857451803.6,3.92E-03
1229,859965530.1,3.93E-03
1230,1119334789,5.13E-03
1231,1114466034,5.11E-03
1232,1119334766,5.13E-03
1233,922186729.7,4.23E-03
1234,927772313.8,4.25E-03
1235,922186706.8,4.23E-03
1236,1018929917,4.68E-03
1237,1018253943,4.67E-03
1238,1018929894,4.68E-03
1239,735494599.6,3.38E-03
1240,737098793,3.38E-03
1241,735494576.6,3.38E-03
1242,1075623296,4.93E-03
1243,1069257767,4.90E-03
1244,1075623273,4.93E-03
1245,870459370.3,4.00E-03
1246,867514162.4,3.98E-03
1247,870459347.3,4.00E-03
1248,719305323.3,3.30E-03
1249,719588970.1,3.30E-03
1250,719305300.3,3.30E-03
1251,985039995,4.51E-03
1252,973539558.9,4.45E-03
1253,985039972,4.51E-03
1254,1000358212,4.59E-03
1255,990848210.5,4.55E-03
1256,1000358189,4.59E-03
1257,1133815737,5.21E-03
1258,1128935703,5.18E-03
1259,1133815714,5.21E-03
1260,642883097.6,2.95E-03
1261,644229110.1,2.95E-03
1262,642883074.6,2.95E-03
1263,613176915.5,2.81E-03
1264,616515792.4,2.83E-03
1265,613176892.5,2.81E-03
1266,1011319007,4.63E-03
1267,1022367343,4.69E-03
1268,1011318984,4.63E-03
1269,533142141.4,2.42E-03
1270,530776886.1,2.41E-03
1271,533142118.4,2.42E-03
1272,630643867.4,2.87E-03
1273,624943714.8,2.84E-03
1274,630643844.4,2.87E-03
1275,1010447472,4.62E-03
1276,1000701644,4.58E-03
1277,1010447449,4.62E-03
1278,996088111.6,4.57E-03
1279,1005830273,4.61E-03
1280,996088088.6,4.57E-03
1281,630925771.1,2.87E-03
1282,628021453.1,2.86E-03
1283,630925748.1,2.87E-03
1284,1040605855,4.77E-03
1285,1046478568,4.80E-03
1286,1040605832,4.77E-03
1287,1069779736,4.91E-03
1288,1082032338,4.96E-03
1289,1069779713,4.91E-03
1290,1214091816,5.58E-03
1291,1212609575,5.57E-03
1292,1214091793,5.58E-03
1293,765446327.7,3.51E-03
1294,754791486.9,3.46E-03
1295,765446304.7,3.51E-03
1296,1111319677,5.10E-03
1297,1124157264,5.16E-03
1298,1111319654,5.10E-03
1299,535560280.8,2.45E-03
1300,534481449.9,2.45E-03
1301,535560257.8,2.45E-03
1302,1215652666,5.57E-03
1303,1204027825,5.52E-03
1304,1215652643,5.57E-03
1305,1091643680,5.00E-03
1306,1089136004,4.99E-03
1307,1091643657,5.00E-03
1308,432835735.8,1.96E-03
1309,426290161.5,1.93E-03
1310,432835712.8,1.96E-03
1311,429599341.6,1.94E-03
1312,430570024.7,1.95E-03
1313,429599318.6,1.94E-03
1314,456315036.2,2.06E-03
1315,460079818.6,2.08E-03
1316,456315013.2,2.06E-03
1317,553197838.4,2.51E-03
1318,556638940.1,2.53E-03
1319,553197815.4,2.51E-03
1320,723101554.4,3.30E-03
1321,728450790.8,3.32E-03
1322,723101531.4,3.30E-03
1323,1060136792,4.85E-03
1324,1048834070,4.80E-03
1325,1060136769,4.85E-03
1326,1186351976,5.44E-03
1327,1175246620,5.39E-03
1328,1186351953,5.44E-03
1329,969475435,4.44E-03
1330,984201405.8,4.51E-03
1331,969475412,4.44E-03
1332,1182803163,5.43E-03
1333,1169801268,5.37E-03
1334,1182803140,5.43E-03
1335,901345567.4,4.14E-03
1336,888977529.2,4.08E-03
1337,901345544.4,4.14E-03
1338,567632560.7,2.60E-03
1339,558820181.4,2.56E-03
1340,567632537.7,2.60E-03
1341,303035688.6,1.38E-03
1342,299314896.8,1.36E-03
1343,303035665.6,1.38E-03
1344,1306006222,6.00E-03
1345,1312409842,6.03E-03
1346,1306006199,6.00E-03
1347,1297606481,5.96E-03
1348,1301300211,5.98E-03
1349,1297606458,5.96E-03
1350,438963710.6,2.00E-03
1351,431798681.9,1.97E-03
1352,438963687.6,2.00E-03
1353,1577443183,7.25E-03
1354,1570054790,7.22E-03
1355,1577443160,7.25E-03
1356,1282675305,5.89E-03
1357,1292662317,5.93E-03
1358,1282675282,5.89E-03
1359,1347316251,6.18E-03
1360,1352933039,6.21E-03
1361,1347316228,6.18E-03
1362,1240644299,5.69E-03
1363,1249358421,5.73E-03
1364,1240644276,5.69E-03
1365,964826365.2,4.41E-03
1366,979472464.8,4.48E-03
1367,964826342.2,4.41E-03
1368,739441928.2,3.37E-03
1369,750054814.8,3.42E-03
1370,739441905.2,3.37E-03
1371,493638811.2,2.24E-03
1372,498183168.6,2.26E-03
1373,493638788.2,2.24E-03
1374,279877429.9,1.25E-03
1375,279394658.3,1.25E-03
1376,279877407,1.25E-03
1377,379828364.5,1.71E-03
1378,373084729.5,1.68E-03
1379,379828341.5,1.71E-03
1380,458172069.8,2.07E-03
1381,456324217.5,2.06E-03
1382,458172046.8,2.07E-03
1383,461102907,2.09E-03
1384,463199199.6,2.10E-03
1385,461102884,2.09E-03
1386,502313252,2.28E-03
1387,507791752.4,2.30E-03
1388,502313229,2.28E-03
1389,717800096.1,3.27E-03
1390,724993355.6,3.31E-03
1391,717800073.1,3.27E-03
1392,1044861083,4.79E-03
1393,1055349738,4.83E-03
1394,1044861060,4.79E-03
1395,1284759859,5.89E-03
1396,1294102633,5.94E-03
1397,1284759836,5.89E-03
1398,1246886386,5.72E-03
1399,1252611646,5.75E-03
1400,1246886363,5.72E-03
1401,1287178655,5.91E-03
1402,1293893839,5.94E-03
1403,1287178632,5.91E-03
1404,1468693582,6.75E-03
1405,1467540402,6.74E-03
1406,1468693559,6.75E-03
1407,1514875824,6.96E-03
1408,1512267974,6.95E-03
1409,1514875801,6.96E-03
1410,1481133551,6.81E-03
1411,1479066499,6.80E-03
1412,1481133528,6.81E-03
1413,1474604820,6.78E-03
1414,1463593012,6.73E-03
1415,1474604797,6.78E-03
1416,1168809435,5.37E-03
1417,1174152251,5.39E-03
1418,1168809412,5.37E-03
1419,1014641083,4.66E-03
1420,1025574874,4.71E-03
1421,1014641060,4.66E-03
1422,789555394.1,3.62E-03
1423,799324073.7,3.67E-03
1424,789555371.1,3.62E-03
1425,508448758.8,2.32E-03
1426,516120613.7,2.36E-03
1427,508448735.8,2.32E-03
1428,370069740,1.69E-03
1429,370401217.9,1.69E-03
1430,370069717,1.69E-03
1431,293476728.7,1.33E-03
1432,292551944.9,1.33E-03
1433,293476705.7,1.33E-03
1434,401931028.4,1.83E-03
1435,405964577,1.85E-03
1436,401931005.4,1.83E-03
1437,821359708.4,3.77E-03
1438,821879702.9,3.77E-03
1439,821359685.4,3.77E-03
1440,935013491,4.29E-03
1441,947833062.4,4.35E-03
1442,935013468,4.29E-03
1443,957370913.5,4.39E-03
1444,961546362.1,4.41E-03
1445,957370890.5,4.39E-03
1446,1119049574,5.14E-03
1447,1109253139,5.09E-03
1448,1119049551,5.14E-03
1449,1299092333,5.97E-03
1450,1299235437,5.97E-03
1451,1299092310,5.97E-03
1452,1525263472,7.01E-03
1453,1521615089,7.00E-03
1454,1525263449,7.01E-03
1455,1985990174,9.14E-03
1456,1971300038,9.07E-03
1457,1985990151,9.14E-03
1458,1736864899,7.99E-03
1459,1727694859,7.95E-03
1460,1736864876,7.99E-03
1461,1584347370,7.28E-03
1462,1799567920,8.28E-03
1463,1451670566,6.67E-03
1464,1303041270,5.99E-03
1465,1123445208,5.16E-03
1466,1053675843,4.84E-03
1467,1092873303,5.02E-03
1468,949060531.8,4.36E-03
1469,447295899.3,2.04E-03
1470,147535975.4,6.59E-04
1471,294173808.4,1.34E-03
1472,573010530.4,2.62E-03
1473,934048719.7,4.29E-03
1474,1164130224,5.35E-03
1475,1234783551,5.67E-03
1476,1413341306,6.50E-03
1477,1424654051,6.55E-03
1478,1408174774,6.47E-03
1479,1316626363,6.05E-03
1480,1166999112,5.35E-03
1481,1266426146,5.81E-03
1482,1383057148,6.35E-03
1483,1151131566,5.28E-03
1484,846035091.7,3.87E-03
1485,605214951.9,2.75E-03
1486,456188978.3,2.06E-03
1487,339347291.3,1.52E-03
1488,216039997,9.55E-04
1489,155255395.2,6.74E-04
1490,542814840.1,2.46E-03
1491,873948057.1,3.99E-03
1492,1111679839,5.09E-03
1493,1347477065,6.18E-03
1494,1368751130,6.28E-03
1495,1189240441,5.46E-03
1496,1408632302,6.47E-03
1497,441080439.5,2.01E-03
1498,1307540226,6.01E-03
1499,1210960827,5.56E-03
1500,281970655.6,1.28E-03
1501,599276297.9,2.74E-03
1502,975288096.1,4.48E-03
1503,1263942639,5.81E-03
1504,918821601.4,4.21E-03
1505,1254427649,5.75E-03
1506,1162096540,5.33E-03
1507,838573332.8,3.83E-03
1508,617831419.9,2.81E-03
1509,481731432.9,2.18E-03
1510,449385435.1,2.03E-03
1511,439772430.8,1.99E-03
1512,1220511492,5.60E-03
1513,1295395447,5.94E-03
1514,519860286.9,2.38E-03
1515,1047755142,4.81E-03
1516,792141797.2,3.63E-03
1517,1245582468,5.72E-03
1518,1034373137,4.74E-03
1519,1021186816,4.68E-03
1520,699194014.8,3.19E-03
1521,962208244.1,4.41E-03
1522,1046530088,4.79E-03
1523,637309887.2,2.90E-03
1524,524216485.8,2.38E-03
1525,978020275.1,4.48E-03
1526,597506043,2.74E-03
1527,632323390,2.90E-03
1528,1157685620,5.32E-03
1529,1030685772,4.73E-03
1530,1024935930,4.69E-03
1531,714792485.2,3.28E-03
1532,878471556.1,4.03E-03
1533,1096257525,5.02E-03
1534,730595184.3,3.35E-03
1535,1022843421,4.69E-03
1536,905581919.5,4.15E-03
1537,1141216776,5.23E-03
1538,865839330.2,3.95E-03
1539,640426598.6,2.91E-03
1540,634180494.9,2.88E-03
1541,856420171.3,3.91E-03
1542,1010662097,4.63E-03
1543,915267029.5,4.19E-03
1544,1114514396,5.11E-03
1545,1002633164,4.60E-03
1546,992302296.1,4.54E-03
1547,1094002324,5.03E-03
1548,1008166549,4.62E-03
1549,1102562284,5.07E-03
1550,1039748280,4.77E-03
1551,892990455,4.10E-03
1552,1036698748,4.75E-03
1553,1002243719,4.59E-03
1554,692111028,3.18E-03
1555,826232052.9,3.80E-03
1556,1042472023,4.77E-03
1557,899076731.6,4.12E-03
1558,945877736.5,4.33E-03
1559,713323107.9,3.25E-03
1560,917658944.7,4.19E-03
1561,989089275.7,4.54E-03
1562,745221844,3.42E-03
1563,1043309429,4.79E-03
1564,899991854.9,4.12E-03
1565,900440517.5,4.13E-03
1566,900563211.2,4.12E-03
1567,829995113.2,3.79E-03
1568,716021155.3,3.26E-03
1569,946539549.2,4.33E-03
1570,990676806.8,4.55E-03
1571,747432364.3,3.43E-03
1572,944561177.8,4.33E-03
1573,820652509.4,3.77E-03
1574,916334659.6,4.21E-03
1575,825002340,3.76E-03
1576,916024609.6,4.21E-03
1577,917846291.5,4.19E-03
1578,954549037.5,4.36E-03
1579,1000647795,4.60E-03
1580,823138309.7,3.78E-03
1581,974324078.7,4.47E-03
1582,760409512.8,3.46E-03
1583,1005106472,4.60E-03
1584,913042670.8,4.19E-03
1585,891311357,4.08E-03
1586,824519682.2,3.76E-03
1587,786309612.1,3.58E-03
1588,884772482.2,4.04E-03
1589,772198777.9,3.55E-03
1590,774791190.5,3.56E-03
1591,876646777,4.03E-03
1592,977383204.7,4.47E-03
1593,830758080.5,3.79E-03
1594,787501110.7,3.62E-03
1595,976458699.6,4.47E-03
1596,954026498.6,4.36E-03
1597,818895245.4,3.77E-03
1598,855786712.6,3.94E-03
1599,875833348,4.03E-03
1600,929066850.4,4.24E-03
1601,935235053.3,4.29E-03
1602,913713676.5,4.19E-03
1603,818605924.2,3.76E-03
1604,912133314.7,4.19E-03
1605,950428880.1,4.37E-03
1606,946816064.2,4.33E-03
1607,883284243.1,4.04E-03
1608,939908167.3,4.30E-03
1609,891976778.5,4.09E-03
1610,870095913.9,3.97E-03
1611,794513478.4,3.66E-03
1612,815092348.2,3.75E-03
1613,884904577.2,4.07E-03
1614,824795867.7,3.76E-03
1615,897115669.6,4.11E-03
1616,794241289.7,3.65E-03
1617,912479388.4,4.19E-03
1618,841558502.7,3.87E-03
1619,883025815.9,4.06E-03
1620,814445096.3,3.75E-03
1621,842876648.1,3.84E-03
1622,864620870.2,3.96E-03
1623,913140103.7,4.18E-03
1624,933863188.8,4.29E-03
1625,870440197.3,3.99E-03
1626,919866154.5,4.23E-03
1627,922609288.8,4.22E-03
1628,824979335.3,3.76E-03
1629,894970768.6,4.08E-03
1630,923852652.7,4.22E-03
1631,865081853.2,3.94E-03
1632,786942466.8,3.62E-03
1633,792691835.4,3.65E-03
1634,907048126.5,4.17E-03
1635,864321241.9,3.94E-03
1636,884609720.4,4.07E-03
1637,919887716.6,4.23E-03
1638,883561136.7,4.03E-03
1639,851262090.3,3.92E-03
1640,838227496.9,3.82E-03
1641,892592377.5,4.10E-03
1642,915478573.6,4.18E-03
1643,833790897.4,3.79E-03
1644,782463566.5,3.60E-03
1645,900645593,4.14E-03
1646,794987952.8,3.66E-03
1647,835623398,3.85E-03
1648,895268482.2,4.08E-03
1649,855233850.4,3.89E-03
1650,913905831.7,4.17E-03
1651,912718389.5,4.16E-03
1652,873888594.1,3.98E-03
1653,850308131.8,3.91E-03
1654,864329332.6,3.93E-03
1655,779356718.9,3.59E-03
1656,817885642.2,3.77E-03
1657,881551744.6,4.01E-03
1658,779356668.1,3.59E-03
1659,765103782.9,3.53E-03
1660,889699321.4,4.09E-03
1661,873441095,3.98E-03
1662,855329273.8,3.89E-03
1663,768726580.8,3.54E-03
1664,881286183.6,4.01E-03
1665,855226796,3.89E-03
1666,877903285.1,3.99E-03
1667,733638422.9,3.38E-03
1668,730667722.7,3.37E-03
1669,898647054,4.10E-03
1670,859570760.6,3.91E-03
1671,874884691.9,3.98E-03
1672,860429771.9,3.91E-03
1673,882875007,4.02E-03
1674,860429788.6,3.91E-03
1675,776787970,3.58E-03
1676,803765752.9,3.71E-03
1677,840047878.1,3.87E-03
1678,960473616,4.43E-03
1679,841547516,3.88E-03
1680,783678807,3.62E-03
1681,751733404.9,3.47E-03
1682,729434128.1,3.37E-03
1683,713286670,3.29E-03
1684,702081177.3,3.24E-03
1685,695405699.4,3.21E-03
1686,693194997,3.20E-03
1687,695405716.1,3.21E-03
1688,702059568.4,3.24E-03
1689,713265043.1,3.29E-03
1690,729434195,3.37E-03
1691,752365975,3.47E-03
1692,784811024.1,3.62E-03
1693,841655688.3,3.88E-03
1694,960949186.6,4.43E-03
1695,938528802.9,4.33E-03
1696,906472914.4,4.18E-03
1697,889893828.9,4.10E-03
1698,885104868,4.07E-03
1699,886210117.9,4.08E-03
1700,892585003.7,4.10E-03
1701,888332793.5,4.08E-03
1702,880018683.8,4.04E-03
1703,870396837.2,3.99E-03
1704,867155280.7,3.97E-03
1705,877897670.2,4.02E-03
1706,892197627.4,4.08E-03
1707,904773139.3,4.14E-03
1708,912700495.6,4.17E-03
1709,909365539.4,4.15E-03
1710,903133709.4,4.12E-03
1711,896484271.9,4.08E-03
1712,890199752,4.05E-03
1713,884953161.6,4.02E-03
1714,881069222.6,4.00E-03
1715,878773145.9,3.99E-03
1716,875807007.1,3.98E-03
1717,872449258.6,3.96E-03
1718,868816528.4,3.95E-03
1719,865333507.3,3.93E-03
1720,862408779,3.92E-03
1721,859741355.7,3.91E-03
1722,862408745.6,3.92E-03
1723,865333457.1,3.93E-03
1724,868816461.6,3.95E-03
1725,872449175,3.96E-03
1726,875887992.5,3.98E-03
1727,878792432.8,3.99E-03
1728,881088839.7,4.00E-03
1729,884953028.2,4.02E-03
1730,890198230.5,4.05E-03
1731,896525722.9,4.08E-03
1732,903133750.2,4.12E-03
1733,909343920.5,4.15E-03
1734,913905872.4,4.17E-03
1735,915456954.7,4.18E-03
1736,912678876.7,4.17E-03
1737,904730034.2,4.14E-03
1738,892132689.1,4.08E-03
1739,877832905.4,4.02E-03
1740,867133835.3,3.97E-03
1741,864599424.8,3.96E-03
1742,880062043.9,4.04E-03
1743,888397813.2,4.08E-03
1744,892657397.2,4.10E-03
1745,892628190.3,4.10E-03
1746,889742508,4.09E-03
1747,886231818.3,4.08E-03
1748,885148054.5,4.07E-03
1749,890298635.6,4.10E-03
1750,906793338.2,4.18E-03
1751,939072348.4,4.33E-03
1752,888513982.5,4.10E-03
1753,902280944.5,4.16E-03
1754,894435049.8,4.12E-03
1755,893273147.5,4.11E-03
1756,895356727.2,4.12E-03
1757,912155764.3,4.19E-03
1758,905177241.9,4.15E-03
1759,891976720.2,4.09E-03
1760,881494212.7,4.04E-03
1761,919509727.1,4.20E-03
1762,905426449.7,4.13E-03
1763,892601311.2,4.06E-03
1764,887204838.5,4.04E-03
1765,882416225.3,4.01E-03
1766,878886934.8,4.00E-03
1767,874881998.7,3.98E-03
1768,870516830.6,3.96E-03
1769,866145241.7,3.94E-03
1770,862307162.5,3.92E-03
1771,859570777.3,3.91E-03
1772,858579629.4,3.90E-03
1773,862285469.4,3.92E-03
1774,866205311.7,3.94E-03
1775,870536688.3,3.96E-03
1776,878907626.8,4.00E-03
1777,882459428,4.01E-03
1778,887206804.7,4.04E-03
1779,892577800.5,4.06E-03
1780,898710182.3,4.10E-03
1781,905426508.1,4.13E-03
1782,912718447.8,4.16E-03
1783,919509785.4,4.20E-03
1784,923852711.1,4.22E-03
1785,922609347.1,4.22E-03
1786,913097016.2,4.18E-03
1787,897094068.3,4.10E-03
1788,883176003,4.04E-03
1789,881580909.8,4.04E-03
1790,905242279.3,4.15E-03
1791,912544252.3,4.19E-03
1792,912198968.5,4.19E-03
1793,907069844.5,4.17E-03
1794,900645477.8,4.14E-03
1795,895394378.1,4.12E-03
1796,893306633.5,4.11E-03
1797,894449478.9,4.12E-03
1798,901713077.9,4.16E-03
1799,887887835,4.09E-03
1800,756578941.1,3.49E-03
1801,742442311,3.42E-03
1802,733638439.6,3.38E-03
1803,742464004.1,3.42E-03
1804,757036447.6,3.49E-03
1805,777681741.1,3.59E-03
1806,804678146,3.71E-03
1807,842115018.9,3.88E-03
1808,877795937.2,3.99E-03
1809,871955134,3.97E-03
1810,865592416.1,3.94E-03
1811,859610548.7,3.91E-03
1812,855226812.7,3.89E-03
1813,853586221.3,3.88E-03
1814,859650884.6,3.91E-03
1815,865652312.7,3.94E-03
1816,872016576,3.97E-03
1817,882987023.9,4.02E-03
1818,887712914.6,4.04E-03
1819,893714818,4.07E-03
1820,902201337.2,4.11E-03
1821,913134880.6,4.17E-03
1822,926534504.5,4.23E-03
1823,939774875,4.29E-03
1824,939543846.3,4.30E-03
1825,916076778.8,4.19E-03
1826,892484438.4,4.09E-03
1827,890900072.6,4.08E-03
1828,935648919.5,4.29E-03
1829,941673806.8,4.32E-03
1830,906007212.7,4.17E-03
1831,894954788.3,4.12E-03
1832,887047529.9,4.08E-03
1833,880545374.2,4.06E-03
1834,873801647.6,4.03E-03
1835,843598486.6,3.89E-03
1836,817036041.2,3.77E-03
1837,795579898.7,3.67E-03
1838,768726564.1,3.54E-03
1839,795754753.2,3.67E-03
1840,844708870.7,3.89E-03
1841,875081091.3,4.03E-03
1842,880936041.5,4.06E-03
1843,887333195.4,4.08E-03
1844,895111363,4.12E-03
1845,906077842.5,4.17E-03
1846,933819966.9,4.29E-03
1847,941630411.5,4.32E-03
1848,892440696.3,4.09E-03
1849,916548183.5,4.19E-03
1850,947161849.1,4.33E-03
1851,939970256.9,4.30E-03
1852,926559038.4,4.23E-03
1853,912968989.4,4.17E-03
1854,902011877.7,4.11E-03
1855,893779547.9,4.07E-03
1856,887731028.7,4.04E-03
1857,887115421.3,4.04E-03
1858,895776606.6,4.08E-03
1859,909358531.6,4.15E-03
1860,978204861.2,4.48E-03
1861,979054667.5,4.49E-03
1862,974974136.3,4.48E-03
1863,923736744.2,4.25E-03
1864,901350578.6,4.15E-03
1865,884456113.1,4.07E-03
1866,871552582.1,4.01E-03
1867,858449949,3.95E-03
1868,834988259.8,3.85E-03
1869,813417068.8,3.75E-03
1870,794459063.4,3.66E-03
1871,778279958.9,3.58E-03
1872,782707739.9,3.61E-03
1873,813281433.5,3.75E-03
1874,859232903.6,3.96E-03
1875,871965238.8,4.01E-03
1876,901833592.8,4.15E-03
1877,924028465.3,4.25E-03
1878,950848303.4,4.37E-03
1879,976328891.8,4.48E-03
1880,943982140.3,4.33E-03
1881,979986556.4,4.49E-03
1882,954392710.8,4.36E-03
1883,928852763.3,4.24E-03
1884,908954366.9,4.15E-03
1885,886858363.4,4.04E-03
1886,848144562.7,3.86E-03
1887,845461877,3.85E-03
1888,848070543.1,3.86E-03
1889,864644980.9,3.94E-03
1890,827599845.7,3.81E-03
1891,806796602.6,3.71E-03
1892,792266922.8,3.65E-03
1893,807701862.2,3.72E-03
1894,828477214.5,3.81E-03
1895,866326383.2,3.99E-03
1896,951677940.9,4.37E-03
1897,1002181358,4.60E-03
1898,917362962,4.20E-03
1899,954500054.1,4.36E-03
1900,917776247.9,4.19E-03
1901,883072746.8,4.03E-03
1902,876588431,3.99E-03
1903,863649498.8,3.93E-03
1904,849582007.1,3.87E-03
1905,838264552.5,3.82E-03
1906,849868550.2,3.87E-03
1907,864094411.4,3.94E-03
1908,877121701.6,4.00E-03
1909,896129221.4,4.09E-03
1910,918313685.4,4.19E-03
1911,922287520.3,4.22E-03
1912,951085777.9,4.37E-03
1913,910407212.5,4.19E-03
1914,865343129.9,3.98E-03
1915,1161582696,5.33E-03
1916,991245149.1,4.53E-03
1917,882873938.1,4.03E-03
1918,869951491.1,3.97E-03
1919,817678673.6,3.72E-03
1920,843356914.3,3.84E-03
1921,1178082210,5.41E-03
1922,854513223.4,3.93E-03
1923,840350165.4,3.87E-03
1924,786309987.5,3.62E-03
1925,837135074.6,3.81E-03
1926,807168539.5,3.68E-03
1927,794300769.7,3.62E-03
1928,806387701.4,3.67E-03
1929,836348320.4,3.81E-03
1930,841126248.8,3.86E-03
1931,786905381.8,3.62E-03
1932,1029230093,4.73E-03
1933,774706676.7,3.53E-03
1934,767588578.1,3.53E-03
1935,796512076.4,3.66E-03
1936,514361956.3,2.33E-03
1937,198985905.6,8.97E-04
1938,1336992753,6.14E-03
1939,413950545.9,1.89E-03
1940,1212522659,5.57E-03
1941,1323350808,6.08E-03
1942,950330209.6,4.35E-03
1943,1154101208,5.29E-03
1944,1028544234,4.71E-03
1945,1229829481,5.65E-03
1946,827984343.3,3.78E-03
1947,1336119730,6.14E-03
1948,1336119684,6.14E-03
1949,827984297.4,3.78E-03
1950,1229829435,5.65E-03
1951,1028544188,4.71E-03
1952,1154101162,5.29E-03
1953,950330163.6,4.35E-03
1954,1323350762,6.08E-03
1955,1212522613,5.57E-03
1956,413950499.9,1.89E-03
1957,1336992707,6.14E-03
1958,198985859.6,8.97E-04
1959,514361910.3,2.33E-03
1960,796512030.4,3.66E-03
1961,767588532.1,3.53E-03
1962,774706630.7,3.53E-03
1963,1029230047,4.73E-03
1964,786905335.8,3.62E-03
1965,841126202.8,3.86E-03
1966,836348274.4,3.81E-03
1967,806387655.4,3.67E-03
1968,794300723.7,3.62E-03
1969,807168493.5,3.68E-03
1970,837135028.6,3.81E-03
1971,786309941.5,3.62E-03
1972,840350119.4,3.87E-03
1973,854513177.4,3.93E-03
1974,1178082164,5.41E-03
1975,843356868.3,3.84E-03
1976,817678627.6,3.72E-03
1977,869951445.1,3.97E-03
1978,882873892.1,4.03E-03
1979,991245103.1,4.53E-03
1980,1161582650,5.33E-03
1981,865343083.9,3.98E-03
1982,910407166.6,4.19E-03
1983,951085731.9,4.37E-03
1984,922287474.3,4.22E-03
1985,918313639.4,4.19E-03
1986,896129175.4,4.09E-03
1987,877121655.7,4.00E-03
1988,864094365.4,3.94E-03
1989,849868504.2,3.87E-03
1990,838264506.5,3.82E-03
1991,849581961.1,3.87E-03
1992,863649452.8,3.93E-03
1993,876588385,3.99E-03
1994,883072700.8,4.03E-03
1995,917776201.9,4.19E-03
1996,954500008.1,4.36E-03
1997,917362916,4.20E-03
1998,1002181312,4.60E-03
1999,951677894.9,4.37E-03
2000,866326337.2,3.99E-03
2001,828477168.5,3.81E-03
2002,807701816.2,3.72E-03
2003,792266876.8,3.65E-03
2004,806796556.6,3.71E-03
2005,827599799.7,3.81E-03
2006,864644934.9,3.94E-03
2007,848070497.1,3.86E-03
2008,845461831,3.85E-03
2009,848144516.7,3.86E-03
2010,886858317.4,4.04E-03
2011,908954320.9,4.15E-03
2012,928852717.3,4.24E-03
2013,954392664.9,4.36E-03
2014,979986510.4,4.49E-03
2015,943982094.3,4.33E-03
2016,976328845.8,4.48E-03
2017,950848257.4,4.37E-03
2018,924028419.3,4.25E-03
2019,901833546.8,4.15E-03
2020,871965192.8,4.01E-03
2021,859232857.6,3.96E-03
2022,813281387.5,3.75E-03
2023,782707693.9,3.61E-03
2024,778279912.9,3.58E-03
2025,794459017.4,3.66E-03
2026,813417022.8,3.75E-03
2027,834988213.8,3.85E-03
2028,858449903,3.95E-03
2029,871552536.1,4.01E-03
2030,884456067.1,4.07E-03
2031,901350532.6,4.15E-03
2032,923736698.2,4.25E-03
2033,974974090.3,4.48E-03
2034,979054621.5,4.49E-03
2035,978204815.2,4.48E-03
2036,909358485.6,4.15E-03
2037,895776560.6,4.08E-03
2038,887115375.3,4.04E-03
2039,887730982.8,4.04E-03
2040,893779501.9,4.07E-03
2041,902011831.7,4.11E-03
2042,912968943.4,4.17E-03
2043,926558992.4,4.23E-03
2044,939970210.9,4.30E-03
2045,947161803.1,4.33E-03
2046,916548137.5,4.19E-03
2047,892440650.3,4.09E-03
2048,941630365.5,4.32E-03
2049,933819920.9,4.29E-03
2050,906077796.5,4.17E-03
2051,895111317,4.12E-03
2052,887333149.4,4.08E-03
2053,880935995.5,4.06E-03
2054,875081045.3,4.03E-03
2055,844708824.8,3.89E-03
2056,795754707.2,3.67E-03
2057,768726518.1,3.54E-03
2058,795579852.7,3.67E-03
2059,817035995.2,3.77E-03
2060,843598440.7,3.89E-03
2061,873801601.6,4.03E-03
2062,880545328.2,4.06E-03
2063,887047483.9,4.08E-03
2064,894954742.3,4.12E-03
2065,906007166.7,4.17E-03
2066,941673760.9,4.32E-03
2067,935648873.5,4.29E-03
2068,890900026.6,4.08E-03
2069,892484392.4,4.09E-03
2070,916076732.8,4.19E-03
2071,939543800.3,4.30E-03
2072,939774829,4.29E-03
2073,926534458.5,4.23E-03
2074,913134834.6,4.17E-03
2075,902201291.2,4.11E-03
2076,893714772,4.07E-03
2077,887712868.6,4.04E-03
2078,882986977.9,4.02E-03
2079,872016530,3.97E-03
2080,865652266.7,3.94E-03
2081,859650838.6,3.91E-03
2082,853586175.3,3.88E-03
2083,855226766.7,3.89E-03
2084,859610502.7,3.91E-03
2085,865592370.1,3.94E-03
2086,871955088.1,3.97E-03
2087,877795891.2,3.99E-03
2088,842114972.9,3.88E-03
2089,804678100,3.71E-03
2090,777681695.1,3.59E-03
2091,757036401.6,3.49E-03
2092,742463958.1,3.42E-03
2093,733638393.6,3.38E-03
2094,742442265,3.42E-03
2095,756578895.1,3.49E-03
2096,887887789,4.09E-03
2097,901713031.9,4.16E-03
2098,894449432.9,4.12E-03
2099,893306587.5,4.11E-03
2100,895394332.2,4.12E-03
2101,900645431.8,4.14E-03
2102,907069798.5,4.17E-03
2103,912198922.5,4.19E-03
2104,912544206.3,4.19E-03
2105,905242233.3,4.15E-03
2106,881580863.8,4.04E-03
2107,883175957.1,4.04E-03
2108,897094022.3,4.10E-03
2109,913096970.2,4.18E-03
2110,922609301.1,4.22E-03
2111,923852665.1,4.22E-03
2112,919509739.4,4.20E-03
2113,912718401.8,4.16E-03
2114,905426462.1,4.13E-03
2115,898710136.3,4.10E-03
2116,892577754.5,4.06E-03
2117,887206758.7,4.04E-03
2118,882459382,4.01E-03
2119,878907580.8,4.00E-03
2120,870536642.3,3.96E-03
2121,866205265.7,3.94E-03
2122,862285423.4,3.92E-03
2123,858579583.4,3.90E-03
2124,859570731.3,3.91E-03
2125,862307116.5,3.92E-03
2126,866145195.7,3.94E-03
2127,870516784.6,3.96E-03
2128,874881952.7,3.98E-03
2129,878886888.8,4.00E-03
2130,882416179.3,4.01E-03
2131,887204792.5,4.04E-03
2132,892601265.2,4.06E-03
2133,905426403.7,4.13E-03
2134,919509681.1,4.20E-03
2135,881494166.7,4.04E-03
2136,891976674.2,4.09E-03
2137,905177195.9,4.15E-03
2138,912155718.3,4.19E-03
2139,895356681.2,4.12E-03
2140,893273101.5,4.11E-03
2141,894435003.8,4.12E-03
2142,902280898.5,4.16E-03
2143,888513936.5,4.10E-03
2144,939072302.4,4.33E-03
2145,906793292.2,4.18E-03
2146,890298589.6,4.10E-03
2147,885148008.5,4.07E-03
2148,886231772.4,4.08E-03
2149,889742462,4.09E-03
2150,892628144.3,4.10E-03
2151,892657351.3,4.10E-03
2152,888397767.3,4.08E-03
2153,880061997.9,4.04E-03
2154,864599378.8,3.96E-03
2155,867133789.3,3.97E-03
2156,877832859.5,4.02E-03
2157,892132643.1,4.08E-03
2158,904729988.2,4.14E-03
2159,912678830.7,4.17E-03
2160,915456908.7,4.18E-03
2161,913905826.4,4.17E-03
2162,909343874.5,4.15E-03
2163,903133704.2,4.12E-03
2164,896525676.9,4.08E-03
2165,890198184.6,4.05E-03
2166,884952982.2,4.02E-03
2167,881088793.7,4.00E-03
2168,878792386.8,3.99E-03
2169,875887946.5,3.98E-03
2170,872449129,3.96E-03
2171,868816415.6,3.95E-03
2172,865333411.1,3.93E-03
2173,862408699.6,3.92E-03
2174,859741309.7,3.91E-03
2175,862408733,3.92E-03
2176,865333461.3,3.93E-03
2177,868816482.5,3.95E-03
2178,872449212.6,3.96E-03
2179,875806961.1,3.98E-03
2180,878773099.9,3.99E-03
2181,881069176.6,4.00E-03
2182,884953115.6,4.02E-03
2183,890199706,4.05E-03
2184,896484225.9,4.08E-03
2185,903133663.4,4.12E-03
2186,909365493.4,4.15E-03
2187,912700449.6,4.17E-03
2188,904773093.3,4.14E-03
2189,892197581.4,4.08E-03
2190,877897624.2,4.02E-03
2191,867155234.7,3.97E-03
2192,870396791.2,3.99E-03
2193,880018637.8,4.04E-03
2194,888332747.5,4.08E-03
2195,892584957.7,4.10E-03
2196,886210071.9,4.08E-03
2197,885104822,4.07E-03
2198,889893782.9,4.10E-03
2199,906472868.4,4.18E-03
2200,938528756.9,4.33E-03
2201,960949140.6,4.43E-03
2202,841655642.3,3.88E-03
2203,784810978.1,3.62E-03
2204,752365929,3.47E-03
2205,729434149,3.37E-03
2206,713264997.2,3.29E-03
2207,702059522.4,3.24E-03
2208,695405670.1,3.21E-03
2209,693194951.1,3.20E-03
2210,695405653.4,3.21E-03
2211,702081131.3,3.24E-03
2212,713286624,3.29E-03
2213,729434082.1,3.37E-03
2214,751733358.9,3.47E-03
2215,783678761,3.62E-03
2216,841547470,3.88E-03
2217,960473570,4.43E-03
2218,840047832.1,3.87E-03
2219,803765706.9,3.71E-03
2220,776787924,3.58E-03
2221,860429742.6,3.91E-03
2222,882874961,4.02E-03
2223,860429725.9,3.91E-03
2224,874884645.9,3.98E-03
2225,859570714.6,3.91E-03
2226,898647008,4.10E-03
2227,730667676.7,3.37E-03
2228,733638376.9,3.38E-03
2229,877903239.1,3.99E-03
2230,855226750,3.89E-03
2231,881286137.6,4.01E-03
2232,768726534.8,3.54E-03
2233,855329227.8,3.89E-03
2234,873441049,3.98E-03
2235,889699275.4,4.09E-03
2236,765103736.9,3.53E-03
2237,779356622.1,3.59E-03
2238,881551698.6,4.01E-03
2239,817885596.2,3.77E-03
2240,779356672.9,3.59E-03
2241,864329286.6,3.93E-03
2242,850308085.8,3.91E-03
2243,873888548.1,3.98E-03
2244,912718343.5,4.16E-03
2245,913905785.7,4.17E-03
2246,855233804.4,3.89E-03
2247,895268436.2,4.08E-03
2248,835623352.1,3.85E-03
2249,794987906.8,3.66E-03
2250,900645547,4.14E-03
2251,782463520.5,3.60E-03
2252,833790851.4,3.79E-03
2253,915478527.7,4.18E-03
2254,892592331.5,4.10E-03
2255,838227451,3.82E-03
2256,851262044.3,3.92E-03
2257,883561090.8,4.03E-03
2258,919887670.6,4.23E-03
2259,884609674.4,4.07E-03
2260,864321195.9,3.94E-03
2261,907048080.5,4.17E-03
2262,792691789.4,3.65E-03
2263,786942420.8,3.62E-03
2264,865081807.2,3.94E-03
2265,923852606.7,4.22E-03
2266,894970722.6,4.08E-03
2267,824979289.3,3.76E-03
2268,922609242.8,4.22E-03
2269,919866108.5,4.23E-03
2270,870440151.3,3.99E-03
2271,933863142.8,4.29E-03
2272,913140057.7,4.18E-03
2273,864620824.2,3.96E-03
2274,842876602.1,3.84E-03
2275,814445050.3,3.75E-03
2276,883025769.9,4.06E-03
2277,841558456.7,3.87E-03
2278,912479342.4,4.19E-03
2279,794241243.7,3.65E-03
2280,897115623.6,4.11E-03
2281,824795821.7,3.76E-03
2282,884904531.2,4.07E-03
2283,815092302.2,3.75E-03
2284,794513432.4,3.66E-03
2285,870095867.9,3.97E-03
2286,891976732.5,4.09E-03
2287,939908121.3,4.30E-03
2288,883284197.1,4.04E-03
2289,946816018.2,4.33E-03
2290,950428834.1,4.37E-03
2291,912133268.7,4.19E-03
2292,818605878.2,3.76E-03
2293,913713630.5,4.19E-03
2294,935235007.3,4.29E-03
2295,929066804.4,4.24E-03
2296,875833302,4.03E-03
2297,855786666.6,3.94E-03
2298,818895199.4,3.77E-03
2299,954026452.6,4.36E-03
2300,976458653.6,4.47E-03
2301,787501064.7,3.62E-03
2302,830758034.5,3.79E-03
2303,977383158.7,4.47E-03
2304,876646731,4.03E-03
2305,774791144.5,3.56E-03
2306,772198731.9,3.55E-03
2307,884772436.2,4.04E-03
2308,786309566.1,3.58E-03
2309,824519636.3,3.76E-03
2310,891311311,4.08E-03
2311,913042624.8,4.19E-03
2312,1005106426,4.60E-03
2313,760409466.8,3.46E-03
2314,974324032.7,4.47E-03
2315,823138263.7,3.78E-03
2316,1000647749,4.60E-03
2317,954548991.5,4.36E-03
2318,917846245.5,4.19E-03
2319,916024563.6,4.21E-03
2320,825002294,3.76E-03
2321,916334613.6,4.21E-03
2322,820652463.4,3.77E-03
2323,944561131.9,4.33E-03
2324,747432318.3,3.43E-03
2325,990676760.8,4.55E-03
2326,946539503.2,4.33E-03
2327,716021109.4,3.26E-03
2328,829995067.2,3.79E-03
2329,900563165.2,4.12E-03
2330,900440471.5,4.13E-03
2331,899991808.9,4.12E-03
2332,1043309383,4.79E-03
2333,745221798,3.42E-03
2334,989089229.7,4.54E-03
2335,917658898.7,4.19E-03
2336,713323061.9,3.25E-03
2337,945877690.5,4.33E-03
2338,899076685.6,4.12E-03
2339,1042471977,4.77E-03
2340,826232007,3.80E-03
2341,692110982,3.18E-03
2342,1002243673,4.59E-03
2343,1036698702,4.75E-03
2344,892990409,4.10E-03
2345,1039748234,4.77E-03
2346,1102562238,5.07E-03
2347,1008166503,4.62E-03
2348,1094002278,5.03E-03
2349,992302250.1,4.54E-03
2350,1002633118,4.60E-03
2351,1114514350,5.11E-03
2352,915266983.5,4.19E-03
2353,1010662051,4.63E-03
2354,856420125.3,3.91E-03
2355,634180448.9,2.88E-03
2356,640426552.6,2.91E-03
2357,865839284.2,3.95E-03
2358,1141216730,5.23E-03
2359,905581873.5,4.15E-03
2360,1022843375,4.69E-03
2361,730595138.3,3.35E-03
2362,1096257479,5.02E-03
2363,878471510.1,4.03E-03
2364,714792439.2,3.28E-03
2365,1024935884,4.69E-03
2366,1030685726,4.73E-03
2367,1157685574,5.32E-03
2368,632323344,2.90E-03
2369,597505997.1,2.74E-03
2370,978020229.1,4.48E-03
2371,524216439.8,2.38E-03
2372,637309841.2,2.90E-03
2373,1046530042,4.79E-03
2374,962208198.1,4.41E-03
2375,699193968.8,3.19E-03
2376,1021186770,4.68E-03
2377,1034373091,4.74E-03
2378,1245582422,5.72E-03
2379,792141751.2,3.63E-03
2380,1047755096,4.81E-03
2381,519860240.9,2.38E-03
2382,1295395401,5.94E-03
2383,1220511446,5.60E-03
2384,439772384.8,1.99E-03
2385,449385389.1,2.03E-03
2386,481731386.9,2.18E-03
2387,617831373.9,2.81E-03
2388,838573286.9,3.83E-03
2389,1162096494,5.33E-03
2390,1254427603,5.75E-03
2391,918821555.5,4.21E-03
2392,1263942593,5.81E-03
2393,975288050.1,4.48E-03
2394,599276251.9,2.74E-03
2395,281970609.6,1.28E-03
2396,1210960781,5.56E-03
2397,1307540180,6.01E-03
2398,441080393.5,2.01E-03
2399,1408632256,6.47E-03
2400,1189240395,5.46E-03
2401,1368751084,6.28E-03
2402,1347477019,6.18E-03
2403,1111679793,5.09E-03
2404,873948011.1,3.99E-03
2405,542814794.1,2.46E-03
2406,155255349.2,6.74E-04
2407,216039951,9.55E-04
2408,339347245.3,1.52E-03
2409,456188932.3,2.06E-03
2410,605214905.9,2.75E-03
2411,846035045.7,3.87E-03
2412,1151131520,5.28E-03
2413,1383057103,6.35E-03
2414,1266426100,5.81E-03
2415,1166999066,5.35E-03
2416,1316626317,6.05E-03
2417,1408174728,6.47E-03
2418,1424654005,6.55E-03
2419,1413341260,6.50E-03
2420,1234783505,5.67E-03
2421,1164130178,5.35E-03
2422,934048673.8,4.29E-03
2423,573010484.4,2.62E-03
2424,294173762.4,1.34E-03
2425,147535929.4,6.59E-04
2426,447295853.3,2.04E-03
2427,949060485.8,4.36E-03
2428,1092873257,5.02E-03
2429,1053675797,4.84E-03
2430,1123445162,5.16E-03
2431,1303041224,5.99E-03
2432,1451670520,6.67E-03
2433,1799567874,8.28E-03
2434,1584347324,7.28E-03
2435,961927516.1,4.44E-03
2436,928463312.6,4.29E-03
2437,882761387.6,4.08E-03
2438,859563874.3,3.97E-03
2439,840871575.4,3.88E-03
2440,828308967,3.82E-03
2441,819905017.9,3.79E-03
2442,814836660.2,3.76E-03
2443,813168872.9,3.75E-03
2444,814858336.6,3.76E-03
2445,819883391.6,3.79E-03
2446,828352336.5,3.82E-03
2447,840481767.9,3.88E-03
2448,857831183.2,3.96E-03
2449,881895100.5,4.07E-03
2450,928939942.7,4.29E-03
2451,962209225.7,4.44E-03
2452,1553193714,7.17E-03
2453,1018890754,4.70E-03
2454,872027916.5,4.02E-03
2455,867101029.7,3.99E-03
2456,855698924.3,3.94E-03
2457,862203130.5,3.97E-03
2458,871720462.2,4.01E-03
2459,881222034.3,4.05E-03
2460,886332590.5,4.07E-03
2461,884125123.5,4.06E-03
2462,873402624.2,4.01E-03
2463,856303501.3,3.93E-03
2464,838800968.7,3.84E-03
2465,828887276.4,3.79E-03
2466,832307793.4,3.81E-03
2467,849115557.1,3.88E-03
2468,873493135.8,3.99E-03
2469,897430958.3,4.10E-03
2470,914842479.7,4.18E-03
2471,923362109.3,4.22E-03
2472,923699237.2,4.22E-03
2473,918145278,4.19E-03
2474,909274263.7,4.14E-03
2475,899315232.8,4.10E-03
2476,890087078.1,4.05E-03
2477,883106671.8,4.02E-03
2478,879999878.3,4.00E-03
2479,880487898.3,4.00E-03
2480,880479592,4.00E-03
2481,878894467.1,3.99E-03
2482,875581426.3,3.98E-03
2483,871253677.5,3.96E-03
2484,866558581.6,3.93E-03
2485,862143152.9,3.91E-03
2486,858524447.1,3.90E-03
2487,856155061.8,3.89E-03
2488,855336497.2,3.88E-03
2489,856155045.1,3.89E-03
2490,858524413.7,3.90E-03
2491,862143102.7,3.91E-03
2492,866558688.3,3.93E-03
2493,871253767.4,3.96E-03
2494,875581499.6,3.98E-03
2495,878894523.7,3.99E-03
2496,880457972.2,4.00E-03
2497,880487921.4,4.00E-03
2498,879978241.7,4.00E-03
2499,883106694.9,4.02E-03
2500,890087101.2,4.05E-03
2501,899315255.9,4.10E-03
2502,909274286.8,4.14E-03
2503,918123641.4,4.19E-03
2504,923677600.6,4.22E-03
2505,923318813,4.22E-03
2506,914799183.4,4.18E-03
2507,897344516.2,4.10E-03
2508,873385034,3.99E-03
2509,849029288.5,3.88E-03
2510,832243184.6,3.81E-03
2511,828865813.3,3.79E-03
2512,838844484.7,3.84E-03
2513,856390336.7,3.93E-03
2514,873489459.6,4.01E-03
2515,884211785.3,4.06E-03
2516,886419252.3,4.07E-03
2517,881265376.7,4.05E-03
2518,871763804.7,4.01E-03
2519,862224639.7,3.97E-03
2520,855785412.6,3.94E-03
2521,867469267.4,4.00E-03
2522,871204750.2,4.02E-03
2523,1018457271,4.70E-03
2524,1552911987,7.17E-03
2525,2425329040,1.12E-02
2526,2011596961,9.25E-03
2527,1639638634,7.53E-03
2528,1135080383,5.20E-03
2529,621051438.3,2.83E-03
2530,188959458.9,8.31E-04
2531,384020604.7,1.73E-03
2532,648255924.2,2.95E-03
2533,767207500.1,3.50E-03
2534,664673093,3.03E-03
2535,401996746.2,1.81E-03
2536,126075664.1,5.41E-04
2537,580179946.4,2.64E-03
2538,1105194513,5.06E-03
2539,1532868865,7.04E-03
2540,1867545495,8.59E-03
2541,2241208167,1.03E-02
2542,2397259118,1.10E-02
2543,2354463063,1.08E-02
2544,2102038686,9.68E-03
2545,1740303091,8.01E-03
2546,1182625870,5.43E-03
2547,636285025.4,2.91E-03
2548,190488067.9,8.55E-04
2549,383975386.4,1.75E-03
2550,635494216.5,2.91E-03
2551,686353696.1,3.15E-03
2552,583079173.4,2.67E-03
2553,288520646.2,1.31E-03
2554,213267215.9,9.61E-04
2555,652919677.9,2.99E-03
2556,1192503398,5.48E-03
2557,1672531522,7.69E-03
2558,2105183180,9.69E-03
2559,2574875839,1.19E-02
2560,2400603072,1.11E-02
2561,2621150319,1.21E-02
2562,2174656366,1.00E-02
2563,1749063140,8.04E-03
2564,1184871267,5.43E-03
2565,616844004.3,2.81E-03
2566,235103464.2,1.04E-03
2567,548539238.2,2.49E-03
2568,845194388,3.86E-03
2569,979731912.7,4.48E-03
2570,863908350.9,3.95E-03
2571,576782243.5,2.62E-03
2572,226849898.1,1.01E-03
2573,579329416.4,2.63E-03
2574,1168954331,5.36E-03
2575,1650219948,7.58E-03
2576,2018412580,9.28E-03
2577,2438112083,1.12E-02
2578,2606039245,1.20E-02
2579,2550214409,1.17E-02
2580,2263937823,1.04E-02
2581,1847487436,8.50E-03
2582,1228701511,5.65E-03
2583,622780806.9,2.85E-03
2584,230346516.4,1.04E-03
2585,555359540.4,2.54E-03
2586,836704134.1,3.84E-03
2587,899094200.9,4.13E-03
2588,783747251.9,3.60E-03
2589,432525918.4,1.97E-03
2590,215059116.8,9.69E-04
2591,641365351.5,2.94E-03
2592,1242088081,5.71E-03
2593,1784004137,8.21E-03
2594,2265890861,1.04E-02
2595,2593972200,1.19E-02
2596,2613352474,1.20E-02
2597,2160298413,9.94E-03
2598,1728664738,7.94E-03
2599,1159231048,5.31E-03
2600,575454592.4,2.62E-03
2601,152146772.8,6.61E-04
2602,532395994.4,2.42E-03
2603,840267737,3.84E-03
2604,978746283,4.48E-03
2605,859349914.5,3.93E-03
2606,560790791,2.55E-03
2607,138956791.2,6.00E-04
2608,536639902.9,2.44E-03
2609,1140801416,5.23E-03
2610,1627785883,7.48E-03
2611,2003166927,9.21E-03
2612,2423166889,1.12E-02
2613,2594122069,1.19E-02
2614,2537210431,1.17E-02
2615,2248333121,1.04E-02
2616,1831060708,8.43E-03
2617,1208248337,5.55E-03
2618,586000569.5,2.68E-03
2619,148044647.9,6.60E-04
2620,539251838.7,2.47E-03
2621,831212454.1,3.81E-03
2622,895487954.6,4.11E-03
2623,776371179.3,3.56E-03
2624,407646044.7,1.86E-03
2625,103254245.6,4.53E-04
2626,606448020.5,2.77E-03
2627,1218884648,5.60E-03
2628,1764371429,8.12E-03
2629,2250719353,1.04E-02
2630,2580968395,1.19E-02
2631,2621150296,1.21E-02
2632,2174656343,1.00E-02
2633,1749063117,8.04E-03
2634,1184871244,5.43E-03
2635,616843981.3,2.81E-03
2636,235103441.2,1.04E-03
2637,548539215.2,2.49E-03
2638,845194365,3.86E-03
2639,979731889.7,4.48E-03
2640,863908327.9,3.95E-03
2641,576782220.5,2.62E-03
2642,226849875.1,1.01E-03
2643,579329393.4,2.63E-03
2644,1168954308,5.36E-03
2645,1650219925,7.58E-03
2646,2018412557,9.28E-03
2647,2438112060,1.12E-02
2648,2606039222,1.20E-02
2649,2550214386,1.17E-02
2650,2263937800,1.04E-02
2651,1847487413,8.50E-03
2652,1228701488,5.65E-03
2653,622780783.9,2.85E-03
2654,230346493.4,1.04E-03
2655,555359517.4,2.54E-03
2656,836704111.1,3.84E-03
2657,899094177.9,4.13E-03
2658,783747228.9,3.60E-03
2659,432525895.4,1.97E-03
2660,215059093.8,9.69E-04
2661,641365328.5,2.94E-03
2662,1242088058,5.71E-03
2663,1784004114,8.21E-03
2664,2265890838,1.04E-02
2665,2593972177,1.19E-02
2666,2425329086,1.12E-02
2667,2772176484,1.28E-02
2668,2762858319,1.27E-02
2669,2772176507,1.28E-02
2670,2574875885,1.19E-02
2671,2400603118,1.11E-02
2672,2105183226,9.69E-03
2673,1672531568,7.69E-03
2674,1192503444,5.48E-03
2675,652919723.9,2.99E-03
2676,213267261.9,9.61E-04
2677,288520692.2,1.31E-03
2678,583079219.4,2.67E-03
2679,686353742,3.15E-03
2680,635494262.5,2.91E-03
2681,383975432.4,1.75E-03
2682,190488113.8,8.55E-04
2683,636285071.4,2.91E-03
2684,1182625916,5.43E-03
2685,1740303137,8.01E-03
2686,2102038732,9.68E-03
2687,2354463109,1.08E-02
2688,2397259164,1.10E-02
2689,2241208213,1.03E-02
2690,1867545541,8.59E-03
2691,1532868911,7.04E-03
2692,1105194559,5.06E-03
2693,580179992.4,2.64E-03
2694,126075710.1,5.41E-04
2695,401996792.1,1.81E-03
2696,664673139,3.03E-03
2697,767207546,3.50E-03
2698,648255970.2,2.95E-03
2699,384020650.7,1.73E-03
2700,188959504.9,8.31E-04
2701,621051484.3,2.83E-03
2702,1135080429,5.20E-03
2703,1639638680,7.53E-03
2704,2011597007,9.25E-03
2705,879760985.3,4.00E-03
2706,879760800.2,4.00E-03
2707,879760962.3,4.00E-03
2708,882737994.2,4.01E-03
2709,882715975.9,4.01E-03
2710,882737971.2,4.01E-03
2711,889826872.5,4.05E-03
2712,889783368.1,4.05E-03
2713,889826849.5,4.05E-03
2714,899228304.6,4.10E-03
2715,899206459.8,4.10E-03
2716,899228281.6,4.10E-03
2717,909403932.3,4.14E-03
2718,909447066.6,4.15E-03
2719,909403909.3,4.14E-03
2720,918534689.3,4.19E-03
2721,918621143.1,4.19E-03
2722,918534666.4,4.19E-03
2723,924369877.3,4.22E-03
2724,924499476.9,4.22E-03
2725,924369854.3,4.22E-03
2726,924248825.7,4.22E-03
2727,924399911.4,4.22E-03
2728,924248802.7,4.22E-03
2729,915750161.7,4.18E-03
2730,915879414.1,4.18E-03
2731,915750138.7,4.18E-03
2732,898034884.1,4.10E-03
2733,898077497.8,4.10E-03
2734,898034861.1,4.10E-03
2735,873403431.1,3.99E-03
2736,873380892.3,3.99E-03
2737,873403408.1,3.99E-03
2738,848224444.1,3.88E-03
2739,848136926.2,3.88E-03
2740,848224421.1,3.88E-03
2741,830875708.9,3.80E-03
2742,830744698.2,3.80E-03
2743,830875685.9,3.80E-03
2744,827498858.3,3.79E-03
2745,827346534.9,3.79E-03
2746,827498835.3,3.79E-03
2747,838041375.6,3.84E-03
2748,837932198,3.84E-03
2749,838041352.6,3.84E-03
2750,856367149.7,3.93E-03
2751,856344784.4,3.93E-03
2752,856367126.7,3.93E-03
2753,874115889.6,4.01E-03
2754,874158503.4,4.01E-03
2755,874115866.6,4.01E-03
2756,885075951.3,4.06E-03
2757,885161710.9,4.06E-03
2758,885075928.3,4.06E-03
2759,887152766.1,4.08E-03
2760,887216692.4,4.08E-03
2761,887152743.1,4.08E-03
2762,881629808.2,4.05E-03
2763,881628755.5,4.05E-03
2764,881629785.2,4.05E-03
2765,871607709.6,4.01E-03
2766,871411372.7,4.01E-03
2767,871607686.6,4.01E-03
2768,861179977,3.96E-03
2769,860571932.6,3.96E-03
2770,861179954,3.96E-03
2771,853397155.3,3.93E-03
2772,852182292.7,3.92E-03
2773,853397132.3,3.93E-03
2774,862070487.6,3.97E-03
2775,859772293.7,3.96E-03
2776,862070464.6,3.97E-03
2777,881527361,4.06E-03
2778,889837379.9,4.10E-03
2779,881527338,4.06E-03
2780,1098386523,5.07E-03
2781,1098432368,5.07E-03
2782,1098386500,5.07E-03
2783,879978287.7,4.00E-03
2784,883106740.9,4.02E-03
2785,890087147.2,4.05E-03
2786,899315301.8,4.10E-03
2787,909274332.8,4.14E-03
2788,918123687.4,4.19E-03
2789,923677646.6,4.22E-03
2790,923318859,4.22E-03
2791,914799229.4,4.18E-03
2792,897344562.1,4.10E-03
2793,873385080,3.99E-03
2794,849029334.5,3.88E-03
2795,832243230.6,3.81E-03
2796,828865859.3,3.79E-03
2797,838844530.7,3.84E-03
2798,856390382.7,3.93E-03
2799,873489505.6,4.01E-03
2800,884211831.3,4.06E-03
2801,886419298.3,4.07E-03
2802,881265422.7,4.05E-03
2803,871763850.7,4.01E-03
2804,862224685.7,3.97E-03
2805,855785458.6,3.94E-03
2806,867469313.4,4.00E-03
2807,871204796.2,4.02E-03
2808,1018457317,4.70E-03
2809,1247510454,5.76E-03
2810,1225655844,5.66E-03
2811,1247510477,5.76E-03
2812,1552912033,7.17E-03
2813,880335620.9,4.00E-03
2814,880205500.8,4.00E-03
2815,880335643.9,4.00E-03
2816,880487967.4,4.00E-03
2817,880674043.1,4.00E-03
2818,880717177.4,4.00E-03
2819,880674020.1,4.00E-03
2820,879218876.3,3.99E-03
2821,879305330,3.99E-03
2822,879218853.3,3.99E-03
2823,875797190,3.98E-03
2824,875883643.7,3.98E-03
2825,875797167,3.98E-03
2826,871339309.5,3.96E-03
2827,871382096.8,3.96E-03
2828,871339286.5,3.96E-03
2829,866535394.7,3.93E-03
2830,866513376.4,3.93E-03
2831,866535371.7,3.93E-03
2832,861989660.7,3.91E-03
2833,861924149.6,3.91E-03
2834,861989637.7,3.91E-03
2835,858262309.5,3.90E-03
2836,858153305.4,3.90E-03
2837,858262286.5,3.90E-03
2838,855827771.6,3.88E-03
2839,855696934.3,3.88E-03
2840,855827748.6,3.88E-03
2841,854987373.8,3.88E-03
2842,854856710.1,3.88E-03
2843,854987350.8,3.88E-03
2844,855827754.9,3.88E-03
2845,855696917.6,3.88E-03
2846,855827731.9,3.88E-03
2847,858262276,3.90E-03
2848,858153272,3.90E-03
2849,858262253,3.90E-03
2850,861989610.6,3.91E-03
2851,861924099.5,3.91E-03
2852,861989587.6,3.91E-03
2853,866535501.4,3.93E-03
2854,866513309.6,3.93E-03
2855,866535478.4,3.93E-03
2856,871339226,3.96E-03
2857,871382186.8,3.96E-03
2858,871339203,3.96E-03
2859,875797263.3,3.98E-03
2860,875861883.8,3.98E-03
2861,875797240.3,3.98E-03
2862,879197099.6,3.99E-03
2863,879305213,3.99E-03
2864,879197076.6,3.99E-03
2865,880674082.9,4.00E-03
2866,880717217.3,4.00E-03
2867,880674059.9,4.00E-03
2868,880479638,4.00E-03
2869,878894513.1,3.99E-03
2870,875581472.3,3.98E-03
2871,871253723.5,3.96E-03
2872,866558627.6,3.93E-03
2873,862143198.9,3.91E-03
2874,858524493.1,3.90E-03
2875,856155107.8,3.89E-03
2876,855336543.2,3.88E-03
2877,856155091,3.89E-03
2878,858524459.6,3.90E-03
2879,862143148.7,3.91E-03
2880,866558734.3,3.93E-03
2881,871253813.4,3.96E-03
2882,875581545.6,3.98E-03
2883,878894569.7,3.99E-03
2884,880458018.2,4.00E-03
2885,880313938.2,4.00E-03
2886,880205477.7,4.00E-03
2887,880313961.2,4.00E-03
2888,880487944.2,4.00E-03
2889,1098971641,5.07E-03
2890,1098952489,5.07E-03
2891,1098971618,5.07E-03
2892,882263871.3,4.07E-03
2893,890552282.5,4.11E-03
2894,882263848.3,4.07E-03
2895,861724083.1,3.97E-03
2896,859447548.9,3.96E-03
2897,861724060.1,3.97E-03
2898,853310667,3.93E-03
2899,852074144.7,3.92E-03
2900,853310644,3.93E-03
2901,861158467.8,3.96E-03
2902,860550423.4,3.96E-03
2903,861158444.8,3.96E-03
2904,871564540.7,4.01E-03
2905,871368203.8,4.01E-03
2906,871564517.7,4.01E-03
2907,881586639.3,4.05E-03
2908,881563753.4,4.05E-03
2909,881586616.3,4.05E-03
2910,887066104.2,4.07E-03
2911,887130204.1,4.07E-03
2912,887066081.2,4.07E-03
2913,884989289.5,4.06E-03
2914,885053389.4,4.06E-03
2915,884989266.5,4.06E-03
2916,874029054.2,4.01E-03
2917,874050008.3,4.01E-03
2918,874029031.2,4.01E-03
2919,856280314.3,3.93E-03
2920,856236289.3,3.93E-03
2921,856280291.3,3.93E-03
2922,837997686.1,3.84E-03
2923,837888682,3.84E-03
2924,837997663.1,3.84E-03
2925,827498661.6,3.79E-03
2926,827367824.4,3.79E-03
2927,827498638.6,3.79E-03
2928,830940317.8,3.80E-03
2929,830809480.6,3.80E-03
2930,830940294.8,3.80E-03
2931,848310886.2,3.88E-03
2932,848223368.3,3.88E-03
2933,848310863.2,3.88E-03
2934,873511532.9,3.99E-03
2935,873488994.1,3.99E-03
2936,873511509.9,3.99E-03
2937,898099840,4.10E-03
2938,898163939.9,4.11E-03
2939,898099817,4.10E-03
2940,915814944.1,4.18E-03
2941,915944370.1,4.18E-03
2942,915814921.1,4.18E-03
2943,924270288.7,4.22E-03
2944,924421548,4.22E-03
2945,924270265.8,4.22E-03
2946,924391513.9,4.22E-03
2947,924521113.4,4.22E-03
2948,924391490.9,4.22E-03
2949,918556325.9,4.19E-03
2950,918642779.6,4.19E-03
2951,918556302.9,4.19E-03
2952,909403909.2,4.14E-03
2953,909447043.5,4.15E-03
2954,909403886.2,4.14E-03
2955,899228281.4,4.10E-03
2956,899206436.7,4.10E-03
2957,899228258.5,4.10E-03
2958,889805189.7,4.05E-03
2959,889783345,4.05E-03
2960,889805166.7,4.05E-03
2961,882737971.1,4.01E-03
2962,882716126.4,4.01E-03
2963,882737948.1,4.01E-03
2964,879782621.8,4.00E-03
2965,879782436.8,4.00E-03
2966,879782598.8,4.00E-03
2967,1018890800,4.70E-03
2968,872027962.5,4.02E-03
2969,867101075.7,3.99E-03
2970,855698970.3,3.94E-03
2971,862203176.5,3.97E-03
2972,871720508.2,4.01E-03
2973,881222080.3,4.05E-03
2974,886332636.5,4.07E-03
2975,884125169.5,4.06E-03
2976,873402670.2,4.01E-03
2977,856303547.3,3.93E-03
2978,838801014.7,3.84E-03
2979,828887322.3,3.79E-03
2980,832307839.4,3.81E-03
2981,849115603.1,3.88E-03
2982,873493181.8,3.99E-03
2983,897431004.2,4.10E-03
2984,914842525.7,4.18E-03
2985,923362155.3,4.22E-03
2986,923699283.2,4.22E-03
2987,918145324,4.19E-03
2988,909274309.7,4.14E-03
2989,899315278.7,4.10E-03
2990,890087124.1,4.05E-03
2991,883106717.8,4.02E-03
2992,879999924.3,4.00E-03
2993,1247488944,5.76E-03
2994,1225655994,5.66E-03
2995,1247488967,5.76E-03
2996,1553193760,7.17E-03
2997,626462363.9,2.89E-03
2998,590269020.4,2.73E-03
2999,626462340.9,2.89E-03
3000,580348904.9,2.68E-03
3001,540841629.7,2.50E-03
3002,580348881.9,2.68E-03
3003,536596351.5,2.48E-03
3004,496785840.7,2.29E-03
3005,536596328.5,2.48E-03
3006,514265225.6,2.37E-03
3007,473761604.9,2.19E-03
3008,514265202.6,2.37E-03
3009,498886858.3,2.30E-03
3010,457755106.7,2.11E-03
3011,498886835.3,2.30E-03
3012,487797108.4,2.25E-03
3013,446513739.1,2.06E-03
3014,487797085.4,2.25E-03
3015,480432824.2,2.22E-03
3016,439171114.5,2.03E-03
3017,480432801.2,2.22E-03
3018,476209194.1,2.20E-03
3019,434947484.5,2.01E-03
3020,476209171.1,2.20E-03
3021,474822982.7,2.19E-03
3022,433582932.8,2.00E-03
3023,474822959.7,2.19E-03
3024,476209210.8,2.20E-03
3025,434947501.2,2.01E-03
3026,476209187.8,2.20E-03
3027,480432857.6,2.22E-03
3028,439171148,2.03E-03
3029,480432834.6,2.22E-03
3030,487775498.8,2.25E-03
3031,446535448.9,2.06E-03
3032,487775475.8,2.25E-03
3033,498886925.1,2.30E-03
3034,457733513.9,2.11E-03
3035,498886902.1,2.30E-03
3036,515131696.5,2.38E-03
3037,474216541.8,2.19E-03
3038,515131673.5,2.38E-03
3039,537614456.9,2.48E-03
3040,497370752.4,2.30E-03
3041,537614433.9,2.48E-03
3042,580284042.9,2.68E-03
3043,540798427.3,2.50E-03
3044,580284019.9,2.68E-03
3045,626224241.1,2.89E-03
3046,590074216.9,2.72E-03
3047,626224218.1,2.89E-03
3048,961927562.1,4.44E-03
3049,928463358.6,4.29E-03
3050,882761433.6,4.08E-03
3051,859563920.3,3.97E-03
3052,840871621.3,3.88E-03
3053,828309013,3.82E-03
3054,819905063.9,3.79E-03
3055,814836706.2,3.76E-03
3056,813168918.9,3.75E-03
3057,814858382.6,3.76E-03
3058,819883437.6,3.79E-03
3059,828352382.5,3.82E-03
3060,840481813.9,3.88E-03
3061,857831229.2,3.96E-03
3062,881895146.5,4.07E-03
3063,928939988.7,4.29E-03
3064,962209271.7,4.44E-03
3065,1232715797,5.66E-03
3066,1194171751,5.49E-03
3067,1233900621,5.67E-03
3068,1225040535,5.63E-03
3069,1085500261,4.99E-03
3070,1286039553,5.91E-03
3071,1232715785,5.66E-03
3072,1183898281,5.44E-03
3073,1233025719,5.67E-03
3074,1221067778,5.61E-03
3075,1088699809,5.00E-03
3076,1194171728,5.49E-03
3077,1233900598,5.67E-03
3078,1225040512,5.63E-03
3079,1085500238,4.99E-03
3080,1286039518,5.91E-03
3081,750818996.1,3.42E-03
3082,825239745.7,3.77E-03
3083,623418811.9,2.84E-03
3084,692723248.3,3.16E-03
3085,907335439.8,4.15E-03
3086,791239795.7,3.61E-03
3087,750818984.6,3.42E-03
3088,823508000.6,3.76E-03
3089,615835481.5,2.80E-03
3090,687566843.8,3.13E-03
3091,897979833,4.10E-03
3092,825239722.7,3.77E-03
3093,623418788.9,2.84E-03
3094,692723225.3,3.16E-03
3095,907335416.8,4.15E-03
3096,791239761.3,3.61E-03
3097,1145335178,5.26E-03
3098,1073542931,4.93E-03
3099,1143142170,5.25E-03
3100,986907735.1,4.53E-03
3101,1191112514,5.47E-03
3102,1145335167,5.26E-03
3103,1061692122,4.88E-03
3104,1133648449,5.21E-03
3105,980103632.8,4.50E-03
3106,1073542908,4.93E-03
3107,1143142147,5.25E-03
3108,986907712.1,4.53E-03
3109,1191112479,5.47E-03
3110,897932015.6,4.11E-03
3111,958310447.9,4.38E-03
3112,809542796.2,3.70E-03
3113,806872560.7,3.68E-03
3114,962253306.4,4.40E-03
3115,897932004.1,4.11E-03
3116,960349743.8,4.39E-03
3117,814178824.8,3.72E-03
3118,812420204.8,3.71E-03
3119,958310424.9,4.38E-03
3120,809542773.2,3.70E-03
3121,806872537.7,3.68E-03
3122,962253271.9,4.40E-03
3123,1020730258,4.67E-03
3124,1040382053,4.76E-03
3125,1032750012,4.73E-03
3126,1087385589,4.98E-03
3127,1020730247,4.67E-03
3128,1034819841,4.74E-03
3129,1038083662,4.75E-03
3130,1040382030,4.76E-03
3131,1032749989,4.73E-03
3132,1087385555,4.98E-03
3133,855219743.2,3.91E-03
3134,922466483.3,4.22E-03
3135,975806762.9,4.46E-03
3136,646408359.4,2.94E-03
3137,799682720.5,3.65E-03
3138,905123146.1,4.14E-03
3139,855219731.7,3.91E-03
3140,912005712,4.17E-03
3141,969831628.6,4.44E-03
3142,638435501.8,2.91E-03
3143,800268388.1,3.65E-03
3144,922466460.3,4.22E-03
3145,975806739.9,4.46E-03
3146,646408336.4,2.94E-03
3147,799682697.5,3.65E-03
3148,905123111.6,4.14E-03
3149,1234200998,5.67E-03
3150,1264736651,5.81E-03
3151,1094623379,5.03E-03
3152,1265484421,5.82E-03
3153,1277587818,5.87E-03
3154,1234200987,5.67E-03
3155,1268929248,5.83E-03
3156,1099056836,5.05E-03
3157,1267901791,5.83E-03
3158,1264736628,5.81E-03
3159,1094623356,5.03E-03
3160,1265484398,5.82E-03
3161,1277587783,5.87E-03
3162,1194776009,5.49E-03
3163,1225386306,5.63E-03
3164,1170217251,5.37E-03
3165,1131598995,5.19E-03
3166,1354139664,6.22E-03
3167,1202964627,5.52E-03
3168,1194775998,5.49E-03
3169,1227390928,5.64E-03
3170,1168021109,5.36E-03
3171,1139084905,5.23E-03
3172,1354195087,6.22E-03
3173,1225386283,5.63E-03
3174,1170217228,5.37E-03
3175,1131598972,5.19E-03
3176,1354139641,6.22E-03
3177,1202964593,5.52E-03
3178,440705649.5,2.01E-03
3179,542069200.4,2.48E-03
3180,488391046.4,2.23E-03
3181,372151293.4,1.70E-03
3182,440113135.2,2.01E-03
3183,427611238.2,1.95E-03
3184,440705638,2.01E-03
3185,542181825.6,2.48E-03
3186,487312736,2.23E-03
3187,369730429.7,1.69E-03
3188,435959149.7,1.99E-03
3189,542069177.4,2.48E-03
3190,488391023.4,2.23E-03
3191,372151270.4,1.70E-03
3192,440113112.3,2.01E-03
3193,427611203.7,1.95E-03
3194,1257962354,5.78E-03
3195,1220065226,5.61E-03
3196,1369250533,6.29E-03
3197,1213101940,5.57E-03
3198,1297148063,5.96E-03
3199,1257962343,5.78E-03
3200,1214187110,5.58E-03
3201,1368829270,6.29E-03
3202,1216406836,5.59E-03
3203,1220065203,5.61E-03
3204,1369250510,6.29E-03
3205,1213101917,5.57E-03
3206,1297148028,5.96E-03
3207,247048006.4,1.12E-03
3208,275433617.7,1.25E-03
3209,343403789,1.56E-03
3210,270652938.8,1.23E-03
3211,223424385.7,1.01E-03
3212,247047994.9,1.12E-03
3213,272774323.9,1.24E-03
3214,339033033.1,1.54E-03
3215,269401871.6,1.22E-03
3216,275433594.7,1.25E-03
3217,343403766,1.56E-03
3218,270652915.9,1.23E-03
3219,223424351.2,1.01E-03
3220,488408053,2.21E-03
3221,561481479.1,2.55E-03
3222,462631397.1,2.09E-03
3223,460960170.7,2.09E-03
3224,386116307.6,1.74E-03
3225,503341998.7,2.28E-03
3226,488408041.5,2.21E-03
3227,554719655,2.52E-03
3228,455457344.8,2.06E-03
3229,457534111.5,2.07E-03
3230,381974784.7,1.72E-03
3231,561481456.2,2.55E-03
3232,462631374.1,2.09E-03
3233,460960147.7,2.09E-03
3234,386116284.6,1.74E-03
3235,503341964.2,2.28E-03
3236,776118528,3.56E-03
3237,749419659.7,3.44E-03
3238,889954417.5,4.09E-03
3239,657535251.7,3.01E-03
3240,840442124.4,3.86E-03
3241,788027027.5,3.62E-03
3242,776118516.5,3.56E-03
3243,746129632.2,3.42E-03
3244,881767219,4.05E-03
3245,653574641.5,3.00E-03
3246,830826254.4,3.81E-03
3247,749419636.7,3.44E-03
3248,889954394.5,4.09E-03
3249,657535228.7,3.01E-03
3250,840442101.4,3.86E-03
3251,788026993,3.62E-03
3252,770600992.2,3.54E-03
3253,779144446.7,3.58E-03
3254,795589573.1,3.66E-03
3255,760462321.3,3.49E-03
3256,752845415.6,3.46E-03
3257,768889021.1,3.53E-03
3258,770600980.8,3.54E-03
3259,779794225.7,3.58E-03
3260,796109741.1,3.66E-03
3261,761459349.4,3.50E-03
3262,754080873.8,3.46E-03
3263,779144423.7,3.58E-03
3264,795589550.1,3.66E-03
3265,760462298.3,3.49E-03
3266,752845392.7,3.46E-03
3267,768888986.6,3.53E-03
3268,778144649.2,3.54E-03
3269,792782273.9,3.61E-03
3270,801572935.6,3.65E-03
3271,770849400.8,3.51E-03
3272,750150852.4,3.42E-03
3273,776176753,3.54E-03
3274,778144637.7,3.54E-03
3275,793538963.1,3.61E-03
3276,802242986,3.66E-03
3277,771973957.6,3.52E-03
3278,751708429.4,3.42E-03
3279,792782250.9,3.61E-03
3280,801572912.6,3.65E-03
3281,770849377.8,3.51E-03
3282,750150829.5,3.42E-03
3283,776176718.5,3.54E-03
3284,989891751,4.55E-03
3285,1037319781,4.76E-03
3286,932573454.6,4.28E-03
3287,880072312.7,4.04E-03
3288,1011965584,4.65E-03
3289,989891739.5,4.55E-03
3290,1029173126,4.73E-03
3291,926291961.2,4.25E-03
3292,869935916.2,3.99E-03
3293,1037319758,4.76E-03
3294,932573431.6,4.28E-03
3295,880072289.7,4.04E-03
3296,1011965549,4.65E-03
3297,788334383.1,3.62E-03
3298,791536746.3,3.64E-03
3299,803552364.5,3.70E-03
3300,782262385.4,3.60E-03
3301,787511500.1,3.62E-03
3302,788334371.6,3.62E-03
3303,791839623.4,3.64E-03
3304,803833755.3,3.70E-03
3305,782760546.6,3.60E-03
3306,791536723.3,3.64E-03
3307,803552341.5,3.70E-03
3308,782262362.4,3.60E-03
3309,787511465.6,3.62E-03
3310,840152760.5,3.86E-03
3311,831904927.8,3.82E-03
3312,876461776.4,4.03E-03
3313,794816873.8,3.65E-03
3314,862736712.8,3.96E-03
3315,840715229.7,3.86E-03
3316,840152749,3.86E-03
3317,831818451.1,3.82E-03
3318,875703676,4.02E-03
3319,795315729.2,3.65E-03
3320,861199210.8,3.96E-03
3321,831904904.8,3.82E-03
3322,876461753.5,4.03E-03
3323,794816850.8,3.65E-03
3324,862736689.8,3.96E-03
3325,840715195.2,3.86E-03
3326,837081261.8,3.81E-03
3327,822450463,3.75E-03
3328,840401630.7,3.83E-03
3329,853448317.6,3.89E-03
3330,831230712.8,3.79E-03
3331,836649988.5,3.81E-03
3332,837081250.3,3.81E-03
3333,822817624.9,3.75E-03
3334,840595515.2,3.83E-03
3335,853534077.2,3.89E-03
3336,831489576.3,3.79E-03
3337,822450440,3.75E-03
3338,840401607.7,3.83E-03
3339,853448294.6,3.89E-03
3340,831230689.8,3.79E-03
3341,836649954,3.81E-03
3342,808181099.6,3.68E-03
3343,802066168.9,3.65E-03
3344,816902854,3.72E-03
3345,807165535.4,3.68E-03
3346,808181088.1,3.68E-03
3347,802649754.2,3.66E-03
3348,817291675.6,3.72E-03
3349,802066145.9,3.65E-03
3350,816902831,3.72E-03
3351,807165500.9,3.68E-03
3352,796548674.3,3.63E-03
3353,802445671.4,3.65E-03
3354,807479195.9,3.68E-03
3355,780121148.7,3.55E-03
3356,795251534.1,3.62E-03
3357,796548662.8,3.63E-03
3358,803050916.3,3.66E-03
3359,807976316,3.68E-03
3360,781072775,3.56E-03
3361,802445648.4,3.65E-03
3362,807479172.9,3.68E-03
3363,780121125.7,3.55E-03
3364,795251499.6,3.62E-03
3365,808940278.1,3.68E-03
3366,823212599.5,3.75E-03
3367,817179966.3,3.72E-03
3368,798672053,3.64E-03
3369,807924540.3,3.68E-03
3370,808940266.6,3.68E-03
3371,823579761.4,3.75E-03
3372,817590447.6,3.72E-03
3373,799342277,3.64E-03
3374,823212576.5,3.75E-03
3375,817179943.3,3.72E-03
3376,798672030.1,3.64E-03
3377,807924505.8,3.68E-03
3378,837846356.3,3.82E-03
3379,853780226.4,3.89E-03
3380,840555048.2,3.83E-03
3381,834613851.5,3.80E-03
3382,837436742.6,3.82E-03
3383,837846344.8,3.82E-03
3384,853865985.9,3.89E-03
3385,840749106.2,3.83E-03
3386,834851228.9,3.81E-03
3387,853780203.4,3.89E-03
3388,840555025.2,3.83E-03
3389,834613828.5,3.80E-03
3390,837436708.1,3.82E-03
3391,787282400.1,3.62E-03
3392,787165278.3,3.62E-03
3393,791039253.2,3.64E-03
3394,791164517.7,3.64E-03
3395,781795922.5,3.60E-03
3396,786742134.2,3.62E-03
3397,787282388.6,3.62E-03
3398,787294357.3,3.62E-03
3399,791276804.1,3.64E-03
3400,791402068.6,3.64E-03
3401,782207098,3.60E-03
3402,787165255.3,3.62E-03
3403,791039230.2,3.64E-03
3404,791164494.7,3.64E-03
3405,781795899.5,3.60E-03
3406,786742099.7,3.62E-03
3407,840043615.5,3.87E-03
3408,847071608.4,3.90E-03
3409,852408930.7,3.92E-03
3410,833624708.2,3.84E-03
3411,827382017.4,3.81E-03
3412,840218639.8,3.87E-03
3413,840043604,3.87E-03
3414,846940944.7,3.90E-03
3415,852234600.6,3.92E-03
3416,833472037.8,3.84E-03
3417,827359478.6,3.81E-03
3418,847071585.4,3.90E-03
3419,852408907.7,3.92E-03
3420,833624685.2,3.84E-03
3421,827381994.4,3.81E-03
3422,840218605.3,3.87E-03
3423,853969631.7,3.93E-03
3424,868051441.5,3.99E-03
3425,864337033.7,3.97E-03
3426,836646342.8,3.85E-03
3427,854273919.9,3.93E-03
3428,853969620.2,3.93E-03
3429,867812479.4,3.99E-03
3430,864076585.4,3.97E-03
3431,836624151,3.85E-03
3432,868051418.5,3.99E-03
3433,864337010.7,3.97E-03
3434,836646319.8,3.85E-03
3435,854273885.4,3.93E-03
3436,1143463913,5.25E-03
3437,1109757070,5.10E-03
3438,1082994009,4.97E-03
3439,1164946841,5.35E-03
3440,1162560162,5.34E-03
3441,1143463901,5.25E-03
3442,1103037697,5.07E-03
3443,1079089354,4.95E-03
3444,1154868309,5.31E-03
3445,1109757047,5.10E-03
3446,1082993986,4.97E-03
3447,1164946818,5.35E-03
3448,1162560128,5.34E-03
3449,843895439.1,3.84E-03
3450,846999731.8,3.86E-03
3451,854488903.6,3.89E-03
3452,834838782.6,3.80E-03
3453,843593776.8,3.84E-03
3454,843895427.6,3.84E-03
3455,847128810.8,3.86E-03
3456,854574836.7,3.89E-03
3457,835076160,3.80E-03
3458,846999708.8,3.86E-03
3459,854488880.6,3.89E-03
3460,834838759.6,3.80E-03
3461,843593742.3,3.84E-03
3462,818909614.2,3.73E-03
3463,826553937.5,3.76E-03
3464,822303244.9,3.74E-03
3465,822200681.3,3.74E-03
3466,818218424.6,3.73E-03
3467,818909602.7,3.73E-03
3468,826834634.3,3.76E-03
3469,822627261,3.75E-03
3470,822524697.4,3.75E-03
3471,826553914.6,3.76E-03
3472,822303221.9,3.74E-03
3473,822200658.3,3.74E-03
3474,818218390.1,3.73E-03
3475,869775593.4,3.97E-03
3476,875912881.8,4.00E-03
3477,867101956.6,3.95E-03
3478,882112567.8,4.02E-03
3479,869885291.5,3.97E-03
3480,869775581.9,3.97E-03
3481,875738898.7,3.99E-03
3482,867079591.3,3.95E-03
3483,882003563.7,4.02E-03
3484,875912858.8,4.00E-03
3485,867101933.6,3.95E-03
3486,882112544.8,4.02E-03
3487,869885257.1,3.97E-03
3488,881853486.3,4.02E-03
3489,899163338.4,4.10E-03
3490,856749283.5,3.91E-03
3491,898324179.8,4.10E-03
3492,882439524,4.03E-03
3493,881853474.8,4.02E-03
3494,898794591.7,4.10E-03
3495,856726744.6,3.91E-03
3496,897630364.3,4.10E-03
3497,899163315.4,4.10E-03
3498,856749260.5,3.91E-03
3499,898324156.8,4.10E-03
3500,882439489.5,4.03E-03
3501,979507144.9,4.48E-03
3502,989938698.3,4.53E-03
3503,947910920.1,4.33E-03
3504,1035477088,4.74E-03
3505,916041307,4.19E-03
3506,986220790.8,4.51E-03
3507,979507133.4,4.48E-03
3508,987210260.8,4.52E-03
3509,945701447.3,4.32E-03
3510,1030215162,4.71E-03
3511,913160210.4,4.17E-03
3512,989938675.3,4.53E-03
3513,947910897.1,4.33E-03
3514,1035477065,4.74E-03
3515,916041284,4.19E-03
3516,986220756.3,4.51E-03
3517,1132084476,5.19E-03
3518,1112236714,5.10E-03
3519,1072051210,4.91E-03
3520,1073014395,4.92E-03
3521,1175155716,5.39E-03
3522,1241000768,5.69E-03
3523,1148165486,5.26E-03
3524,1132084465,5.19E-03
3525,1106024712,5.07E-03
3526,1069152445,4.90E-03
3527,1075899634,4.93E-03
3528,1166715022,5.35E-03
3529,1241160183,5.69E-03
3530,1112236691,5.10E-03
3531,1072051187,4.91E-03
3532,1073014372,4.92E-03
3533,1175155693,5.39E-03
3534,1241000745,5.69E-03
3535,1148165451,5.26E-03
3536,864581379.6,3.98E-03
3537,874137009.3,4.02E-03
3538,857096115.5,3.94E-03
3539,873390499.1,4.02E-03
3540,865016493.6,3.98E-03
3541,864581368.1,3.98E-03
3542,873854380.7,4.02E-03
3543,856834973.1,3.94E-03
3544,873108044.1,4.02E-03
3545,874136986.3,4.02E-03
3546,857096092.5,3.94E-03
3547,873390476.1,4.02E-03
3548,865016459.1,3.98E-03
3549,908346748.8,4.18E-03
3550,928109626.2,4.27E-03
3551,915380168.9,4.21E-03
3552,895348125,4.12E-03
3553,891655897.4,4.10E-03
3554,909517771.5,4.18E-03
3555,908346737.3,4.18E-03
3556,927242359.7,4.26E-03
3557,914837797.6,4.21E-03
3558,894914052.1,4.11E-03
3559,891157192.6,4.10E-03
3560,928109603.2,4.27E-03
3561,915380145.9,4.21E-03
3562,895348102,4.12E-03
3563,891655874.4,4.10E-03
3564,909517737,4.18E-03
3565,947009922.4,4.35E-03
3566,947810385.7,4.35E-03
3567,970964224.7,4.46E-03
3568,930088765.1,4.27E-03
3569,949329602.4,4.36E-03
3570,947009910.9,4.35E-03
3571,946834647.3,4.35E-03
3572,969338522.1,4.45E-03
3573,928939922.7,4.27E-03
3574,947810362.7,4.35E-03
3575,970964201.7,4.46E-03
3576,930088742.1,4.27E-03
3577,949329567.9,4.36E-03
3578,937234767.4,4.29E-03
3579,920581563.1,4.22E-03
3580,970621238.8,4.45E-03
3581,928651075.5,4.25E-03
3582,987851267.6,4.53E-03
3583,928678162.5,4.25E-03
3584,937234755.9,4.29E-03
3585,923722205.8,4.23E-03
3586,972463862.3,4.45E-03
3587,933588430.8,4.28E-03
3588,992921184,4.55E-03
3589,920581540.1,4.22E-03
3590,970621215.8,4.45E-03
3591,928651052.5,4.25E-03
3592,987851244.6,4.53E-03
3593,928678128.1,4.25E-03
3594,916644657.7,4.18E-03
3595,906225009.7,4.14E-03
3596,922398468.4,4.21E-03
3597,900348839.6,4.11E-03
3598,934104408.9,4.27E-03
3599,917598389.5,4.19E-03
3600,916644646.2,4.18E-03
3601,905878096.1,4.13E-03
3602,921964916.2,4.21E-03
3603,899958433.2,4.11E-03
3604,933324475.2,4.26E-03
3605,906224986.7,4.14E-03
3606,922398445.4,4.21E-03
3607,900348816.6,4.11E-03
3608,934104385.9,4.27E-03
3609,917598355,4.19E-03
3610,895456018.6,4.08E-03
3611,902167367.2,4.12E-03
3612,889476085.3,4.06E-03
3613,882742172.4,4.03E-03
3614,895825112.4,4.09E-03
3615,895456007.1,4.08E-03
3616,901993731.2,4.12E-03
3617,889345595.1,4.06E-03
3618,882633168.3,4.03E-03
3619,902167344.2,4.12E-03
3620,889476062.3,4.06E-03
3621,882742149.4,4.03E-03
3622,895825077.9,4.09E-03
3623,877054796.5,4.00E-03
3624,870639059.5,3.97E-03
3625,882041005.8,4.02E-03
3626,875471258.6,3.99E-03
3627,880221064.7,4.01E-03
3628,877099168.6,4.00E-03
3629,877054785,4.00E-03
3630,870638527.5,3.97E-03
3631,882018814,4.02E-03
3632,875470726.5,3.99E-03
3633,880198873,4.01E-03
3634,870639036.5,3.97E-03
3635,882040982.8,4.02E-03
3636,875471235.6,3.99E-03
3637,880221041.7,4.01E-03
3638,877099134.1,4.00E-03
3639,864200436.7,3.94E-03
3640,857175278.5,3.90E-03
3641,864432668.1,3.94E-03
3642,864661847.3,3.94E-03
3643,864136683.9,3.94E-03
3644,864200425.2,3.94E-03
3645,857239551.9,3.90E-03
3646,864475281.8,3.94E-03
3647,864682974.9,3.94E-03
3648,857175255.5,3.90E-03
3649,864432645.1,3.94E-03
3650,864661824.3,3.94E-03
3651,864136649.4,3.94E-03
3652,850212311.4,3.87E-03
3653,844466463.1,3.84E-03
3654,852823811,3.88E-03
3655,849997287.8,3.87E-03
3656,850212299.9,3.87E-03
3657,844595715.6,3.84E-03
3658,852888084.4,3.88E-03
3659,844466440.1,3.84E-03
3660,852823788,3.88E-03
3661,849997253.3,3.87E-03
3662,838846396.7,3.82E-03
3663,843532714.2,3.84E-03
3664,836557768.4,3.81E-03
3665,832300655.1,3.79E-03
3666,838501415.1,3.82E-03
3667,838846385.2,3.82E-03
3668,843661966.7,3.84E-03
3669,836751999.9,3.81E-03
3670,832538032.5,3.79E-03
3671,843532691.2,3.84E-03
3672,836557745.4,3.81E-03
3673,832300632.1,3.79E-03
3674,838501380.6,3.82E-03
3675,849947428,3.87E-03
3676,856820467.3,3.90E-03
3677,852643484,3.88E-03
3678,844304663.8,3.84E-03
3679,846627070.2,3.86E-03
3680,849732230.9,3.87E-03
3681,849947416.5,3.87E-03
3682,856884740.7,3.90E-03
3683,852707757.4,3.88E-03
3684,844433916.3,3.84E-03
3685,846756149.2,3.86E-03
3686,856820444.3,3.90E-03
3687,852643461,3.88E-03
3688,844304640.8,3.84E-03
3689,846627047.2,3.86E-03
3690,849732196.4,3.87E-03
3691,863755524.1,3.93E-03
3692,870149967.9,3.96E-03
3693,864074047.3,3.93E-03
3694,864070002,3.94E-03
3695,863691771.2,3.93E-03
3696,863755512.6,3.93E-03
3697,870149435.9,3.96E-03
3698,864095001.4,3.93E-03
3699,864090956.1,3.94E-03
3700,870149944.9,3.96E-03
3701,864074024.3,3.93E-03
3702,864069979,3.94E-03
3703,863691736.7,3.93E-03
3704,876543012.1,3.99E-03
3705,879710147.7,4.01E-03
3706,881656758.1,4.02E-03
3707,875002446.7,3.98E-03
3708,876587384.1,3.99E-03
3709,876543000.6,3.99E-03
3710,879687955.9,4.01E-03
3711,881634566.3,4.02E-03
3712,874980254.9,3.98E-03
3713,879710124.7,4.01E-03
3714,881656735.1,4.02E-03
3715,875002423.7,3.98E-03
3716,876587349.6,3.99E-03
3717,882854050.3,4.02E-03
3718,888962927.2,4.05E-03
3719,873630355.3,3.98E-03
3720,888663320.2,4.05E-03
3721,882985234.6,4.02E-03
3722,882854038.8,4.02E-03
3723,888897416,4.05E-03
3724,873608163.5,3.98E-03
3725,888532830,4.05E-03
3726,888962904.2,4.05E-03
3727,873630332.3,3.98E-03
3728,888663297.2,4.05E-03
3729,882985200.1,4.02E-03
3730,916107046.7,4.18E-03
3731,933822028.3,4.27E-03
3732,922011789.5,4.21E-03
3733,905387981.1,4.13E-03
3734,917060952,4.19E-03
3735,916107035.2,4.18E-03
3736,933020435,4.26E-03
3737,921578410.8,4.21E-03
3738,905062553.8,4.13E-03
3739,933822005.3,4.27E-03
3740,922011766.5,4.21E-03
3741,905387958.1,4.13E-03
3742,917060917.5,4.19E-03
3743,950731078.3,4.34E-03
3744,951756665.7,4.35E-03
3745,974976872.8,4.46E-03
3746,932952186.4,4.26E-03
3747,952897231.7,4.35E-03
3748,950731066.8,4.34E-03
3749,950868607.2,4.35E-03
3750,973395877.9,4.45E-03
3751,931869017.2,4.26E-03
3752,951756642.7,4.35E-03
3753,974976849.8,4.46E-03
3754,932952163.5,4.26E-03
3755,952897197.2,4.35E-03
3756,933457304.7,4.28E-03
3757,918903221.5,4.21E-03
3758,930163922.7,4.26E-03
3759,970250767,4.44E-03
3760,971182055,4.45E-03
3761,924207937,4.23E-03
3762,933457293.2,4.28E-03
3763,922325266.6,4.22E-03
3764,934949313.2,4.28E-03
3765,972374966.3,4.45E-03
3766,979110355.5,4.49E-03
3767,918903198.5,4.21E-03
3768,930163899.7,4.26E-03
3769,970250744,4.44E-03
3770,971182032,4.45E-03
3771,924207902.5,4.23E-03
3772,994702502.3,4.57E-03
3773,971983854.8,4.47E-03
3774,983443389.1,4.52E-03
3775,987536145.1,4.54E-03
3776,1013449835,4.65E-03
3777,998972768.6,4.59E-03
3778,994702490.8,4.57E-03
3779,970314659.4,4.46E-03
3780,981838999.2,4.51E-03
3781,984783792,4.52E-03
3782,1011021683,4.64E-03
3783,971983831.8,4.47E-03
3784,983443366.1,4.52E-03
3785,987536122.1,4.54E-03
3786,1013449812,4.65E-03
3787,998972734.1,4.59E-03
3788,947602085.4,4.35E-03
3789,948316092.1,4.36E-03
3790,929268758.8,4.27E-03
3791,930464149.5,4.28E-03
3792,949943251.6,4.37E-03
3793,947602073.9,4.35E-03
3794,947318694,4.35E-03
3795,928379832.6,4.27E-03
3796,929293821,4.27E-03
3797,948316069.2,4.36E-03
3798,929268735.8,4.27E-03
3799,930464126.5,4.28E-03
3800,949943217.1,4.37E-03
3801,865542973.2,3.98E-03
3802,858053718.1,3.95E-03
3803,874705613.1,4.02E-03
3804,853483153.1,3.93E-03
3805,874788930.1,4.02E-03
3806,865999920.4,3.98E-03
3807,865542961.7,3.98E-03
3808,857771089.5,3.95E-03
3809,874422984.5,4.02E-03
3810,853308996.4,3.93E-03
3811,874506475.1,4.02E-03
3812,858053695.1,3.95E-03
3813,874705590.1,4.02E-03
3814,853483130.1,3.93E-03
3815,874788907.1,4.02E-03
3816,865999885.9,3.98E-03
3817,827909360.2,3.81E-03
3818,817791307.9,3.76E-03
3819,820624933.4,3.78E-03
3820,839224953.7,3.86E-03
3821,834656818.2,3.84E-03
3822,828236696.3,3.81E-03
3823,827909348.7,3.81E-03
3824,817638463.9,3.76E-03
3825,820406763.3,3.78E-03
3826,838963637.8,3.86E-03
3827,834504147.7,3.84E-03
3828,817791284.9,3.76E-03
3829,820624910.5,3.78E-03
3830,839224930.7,3.86E-03
3831,834656795.2,3.84E-03
3832,828236661.8,3.81E-03
3833,807523882.2,3.72E-03
3834,801393665.8,3.69E-03
3835,800190937.3,3.68E-03
3836,811448119.3,3.73E-03
3837,807634621.5,3.72E-03
3838,807523870.7,3.72E-03
3839,801283794.1,3.69E-03
3840,800124732,3.68E-03
3841,811425407,3.73E-03
3842,801393642.8,3.69E-03
3843,800190914.3,3.68E-03
3844,811448096.4,3.73E-03
3845,807634587,3.72E-03
3846,792370692.2,3.65E-03
3847,799504191.5,3.68E-03
3848,787609200.4,3.63E-03
3849,789771887.2,3.64E-03
3850,793777373.7,3.65E-03
3851,792308154,3.65E-03
3852,792370680.7,3.65E-03
3853,799459645.9,3.68E-03
3854,787585967.4,3.63E-03
3855,789770661,3.64E-03
3856,793863133.3,3.65E-03
3857,799504168.5,3.68E-03
3858,787609177.4,3.63E-03
3859,789771864.2,3.64E-03
3860,793777350.7,3.65E-03
3861,792308119.5,3.65E-03
3862,806596962.8,3.71E-03
3863,816889163.8,3.76E-03
3864,800665848.2,3.69E-03
3865,810650117.1,3.73E-03
3866,806707875.7,3.71E-03
3867,806596951.3,3.71E-03
3868,816757806,3.76E-03
3869,800577636.2,3.69E-03
3870,810649064.5,3.73E-03
3871,816889140.8,3.76E-03
3872,800665825.2,3.69E-03
3873,810650094.2,3.73E-03
3874,806707841.2,3.71E-03
3875,827053477.5,3.81E-03
3876,820254066.7,3.78E-03
3877,838330949.8,3.86E-03
3878,827380987.3,3.81E-03
3879,827053466,3.81E-03
3880,820057729.8,3.78E-03
3881,838069633.8,3.86E-03
3882,820254043.7,3.78E-03
3883,838330926.8,3.86E-03
3884,827380952.8,3.81E-03
3885,864707686.8,3.94E-03
3886,865157556.3,3.94E-03
3887,860083456.5,3.91E-03
3888,869287047.4,3.96E-03
3889,864665593.6,3.94E-03
3890,864707675.3,3.94E-03
3891,865178510.4,3.94E-03
3892,860126070.2,3.91E-03
3893,869286515.3,3.96E-03
3894,865157533.3,3.94E-03
3895,860083433.5,3.91E-03
3896,869287024.4,3.96E-03
3897,864665559.1,3.94E-03
3898,848349325.3,3.86E-03
3899,847014590.8,3.85E-03
3900,851786669.5,3.87E-03
3901,851894053.2,3.88E-03
3902,848199280.7,3.86E-03
3903,848349313.8,3.86E-03
3904,847100523.9,3.85E-03
3905,851829283.3,3.87E-03
3906,851958326.7,3.88E-03
3907,847014567.8,3.85E-03
3908,851786646.5,3.87E-03
3909,851894030.2,3.88E-03
3910,848199246.3,3.86E-03
3911,845762145.3,3.85E-03
3912,847062430.4,3.85E-03
3913,849672879,3.86E-03
3914,840034612.6,3.82E-03
3915,845590441.1,3.85E-03
3916,845762133.8,3.85E-03
3917,847126703.9,3.85E-03
3918,849715319.2,3.86E-03
3919,840185351.2,3.82E-03
3920,847062407.4,3.85E-03
3921,849672856,3.86E-03
3922,840034589.6,3.82E-03
3923,845590406.6,3.85E-03
3924,848423344.8,3.86E-03
3925,851812857.8,3.87E-03
3926,851883351.3,3.88E-03
3927,843540366.3,3.84E-03
3928,848251640.6,3.86E-03
3929,848423333.3,3.86E-03
3930,851855471.6,3.87E-03
3931,851947624.7,3.88E-03
3932,843669618.8,3.84E-03
3933,851812834.8,3.87E-03
3934,851883328.3,3.88E-03
3935,843540343.3,3.84E-03
3936,848251606.1,3.86E-03
3937,886748485.9,4.04E-03
3938,890241400,4.06E-03
3939,884017158.3,4.03E-03
3940,890910925.8,4.06E-03
3941,886814344.1,4.04E-03
3942,886748474.4,4.04E-03
3943,890219381.7,4.06E-03
3944,883994966.6,4.03E-03
3945,890845588.2,4.06E-03
3946,890241377,4.06E-03
3947,884017135.3,4.03E-03
3948,890910902.8,4.06E-03
3949,886814309.6,4.04E-03
3950,908302997.3,4.14E-03
3951,918048082.8,4.19E-03
3952,910536873.4,4.15E-03
3953,901721104.9,4.11E-03
3954,901418547.9,4.11E-03
3955,908672091.1,4.15E-03
3956,908302985.8,4.14E-03
3957,917744488.7,4.19E-03
3958,910384897,4.15E-03
3959,901590614.7,4.11E-03
3960,901223252.2,4.11E-03
3961,918048059.8,4.19E-03
3962,910536850.4,4.15E-03
3963,901721081.9,4.11E-03
3964,901418524.9,4.11E-03
3965,908672056.6,4.15E-03
3966,927487144.8,4.24E-03
3967,939977457.2,4.29E-03
3968,926793319.4,4.23E-03
3969,928267425.5,4.24E-03
3970,927487133.3,4.24E-03
3971,939435780.1,4.29E-03
3972,926511558.5,4.23E-03
3973,939977434.2,4.29E-03
3974,926793296.4,4.23E-03
3975,928267391,4.24E-03
3976,951901656.4,4.35E-03
3977,945597278.7,4.32E-03
3978,963301349.3,4.40E-03
3979,953331380.6,4.36E-03
3980,951901644.9,4.35E-03
3981,945077434.8,4.32E-03
3982,962434950.5,4.40E-03
3983,945597255.7,4.32E-03
3984,963301326.3,4.40E-03
3985,953331346.1,4.36E-03
3986,977021765.3,4.47E-03
3987,958299652.6,4.39E-03
3988,975892418.3,4.47E-03
3989,962450976.6,4.41E-03
3990,1005627473,4.60E-03
3991,978709844,4.48E-03
3992,977021753.8,4.47E-03
3993,957758496,4.38E-03
3994,974961561,4.46E-03
3995,962213402.7,4.40E-03
3996,1003787603,4.60E-03
3997,958299629.6,4.39E-03
3998,975892395.3,4.47E-03
3999,962450953.6,4.41E-03
4000,1005627450,4.60E-03
4001,978709809.5,4.48E-03
4002,945121236.2,4.33E-03
4003,959370636.8,4.40E-03
4004,929406065,4.26E-03
4005,925154211.2,4.24E-03
4006,973268904.1,4.46E-03
4007,944454482.8,4.33E-03
4008,945121224.7,4.33E-03
4009,959130112.8,4.40E-03
4010,929750873.1,4.26E-03
4011,926386719.3,4.25E-03
4012,973287428.7,4.46E-03
4013,959370613.8,4.40E-03
4014,929406042,4.26E-03
4015,925154188.2,4.24E-03
4016,973268881.1,4.46E-03
4017,944454448.3,4.33E-03
4018,973397008.3,4.47E-03
4019,954121524.6,4.38E-03
4020,972461235.1,4.46E-03
4021,1002480870,4.60E-03
4022,975090639.9,4.48E-03
4023,973396996.8,4.47E-03
4024,953534966.4,4.38E-03
4025,971484802.5,4.46E-03
4026,1000702161,4.59E-03
4027,954121501.6,4.38E-03
4028,972461212.1,4.46E-03
4029,1002480847,4.60E-03
4030,975090605.4,4.48E-03
4031,948028188.9,4.36E-03
4032,935429819.7,4.30E-03
4033,940458478.6,4.32E-03
4034,959764520.6,4.41E-03
4035,949654932.6,4.36E-03
4036,948028177.4,4.36E-03
4037,934778976.5,4.30E-03
4038,939850781.3,4.32E-03
4039,958831754.4,4.40E-03
4040,935429796.7,4.30E-03
4041,940458455.6,4.32E-03
4042,959764497.6,4.41E-03
4043,949654898.1,4.36E-03
4044,922183730.7,4.24E-03
4045,911583952.4,4.19E-03
4046,920634197.8,4.23E-03
4047,916389254,4.21E-03
4048,923225315.9,4.24E-03
4049,922183719.3,4.24E-03
4050,911128046.4,4.19E-03
4051,920178291.7,4.23E-03
4052,915825049.5,4.21E-03
4053,911583929.4,4.19E-03
4054,920634174.8,4.23E-03
4055,916389231,4.21E-03
4056,923225281.4,4.24E-03
4057,900552183.6,4.14E-03
4058,902945060.2,4.15E-03
4059,892232225,4.10E-03
4060,892315195,4.10E-03
4061,901290533.2,4.14E-03
4062,900552172.1,4.14E-03
4063,902597452.6,4.15E-03
4064,891884790.9,4.10E-03
4065,891967760.9,4.10E-03
4066,902945037.2,4.15E-03
4067,892232202,4.10E-03
4068,892315172,4.10E-03
4069,901290498.7,4.14E-03
4070,870595802.6,4.01E-03
4071,864576108.9,3.98E-03
4072,878354380.9,4.04E-03
4073,860633154,3.96E-03
4074,877265471.7,4.04E-03
4075,871378165.7,4.01E-03
4076,870595791.1,4.01E-03
4077,864119855.8,3.98E-03
4078,877876468.1,4.04E-03
4079,860241880,3.96E-03
4080,876896030.9,4.04E-03
4081,864576085.9,3.98E-03
4082,878354357.9,4.04E-03
4083,860633131,3.96E-03
4084,877265448.7,4.04E-03
4085,871378131.2,4.01E-03
4086,858121648.3,3.95E-03
4087,868885369.6,4.00E-03
4088,850414963.4,3.92E-03
4089,846781630.1,3.90E-03
4090,858796580.6,3.96E-03
4091,858121636.8,3.95E-03
4092,868320471,4.00E-03
4093,850044550.8,3.92E-03
4094,846389835.4,3.90E-03
4095,868885346.6,4.00E-03
4096,850414940.4,3.92E-03
4097,846781607.1,3.90E-03
4098,858796546.1,3.96E-03
4099,813122857.2,3.75E-03
4100,803784022.8,3.70E-03
4101,824217515.8,3.80E-03
4102,804224688.4,3.70E-03
4103,813256644.5,3.75E-03
4104,813122845.7,3.75E-03
4105,803673300.8,3.70E-03
4106,823955679.2,3.80E-03
4107,804049317.1,3.70E-03
4108,803783999.8,3.70E-03
4109,824217492.8,3.80E-03
4110,804224665.4,3.70E-03
4111,813256610,3.75E-03
4112,783068822.5,3.61E-03
4113,780919309.5,3.60E-03
4114,775361978.1,3.57E-03
4115,789143435.1,3.64E-03
4116,787943830.1,3.63E-03
4117,782899374.2,3.61E-03
4118,783068811,3.61E-03
4119,780852410.1,3.60E-03
4120,775337825.5,3.57E-03
4121,789054876,3.63E-03
4122,787920597.2,3.63E-03
4123,780919286.5,3.60E-03
4124,775361955.1,3.57E-03
4125,789143412.1,3.64E-03
4126,787943807.2,3.63E-03
4127,782899339.7,3.61E-03
4128,778706020.6,3.59E-03
4129,771369178.2,3.55E-03
4130,780786393,3.60E-03
4131,782952723.9,3.61E-03
4132,778493253,3.59E-03
4133,778706009.1,3.59E-03
4134,771388344.9,3.55E-03
4135,780740979.7,3.60E-03
4136,782929491,3.61E-03
4137,771369155.2,3.55E-03
4138,780786370,3.60E-03
4139,782952701,3.61E-03
4140,778493218.5,3.59E-03
4141,794646868.6,3.66E-03
4142,804027974.6,3.70E-03
4143,786401117.8,3.62E-03
4144,788767733.6,3.63E-03
4145,794585718.7,3.66E-03
4146,794646857.1,3.66E-03
4147,803874263,3.70E-03
4148,786333680.5,3.62E-03
4149,788700660.6,3.63E-03
4150,804027951.6,3.70E-03
4151,786401094.8,3.62E-03
4152,788767710.6,3.63E-03
4153,794585684.2,3.66E-03
4154,813258492.5,3.75E-03
4155,823978854.4,3.80E-03
4156,803786072.9,3.70E-03
4157,813392279.8,3.75E-03
4158,813258481,3.75E-03
4159,823717017.9,3.79E-03
4160,803653708.6,3.70E-03
4161,823978831.4,3.80E-03
4162,803786049.9,3.70E-03
4163,813392245.3,3.75E-03
4164,834418323.1,3.84E-03
4165,846083413.5,3.90E-03
4166,824986030,3.80E-03
4167,842036507.2,3.88E-03
4168,834790193.3,3.85E-03
4169,834418311.6,3.84E-03
4170,845691792.4,3.90E-03
4171,824767096.4,3.80E-03
4172,841731698.4,3.88E-03
4173,846083390.5,3.90E-03
4174,824986007,3.80E-03
4175,842036484.2,3.88E-03
4176,834790158.9,3.85E-03
4177,857338693.7,3.95E-03
4178,864010792.8,3.98E-03
4179,849479071.8,3.91E-03
4180,868320218.3,4.00E-03
4181,858013799.5,3.95E-03
4182,857338682.2,3.95E-03
4183,863554366.2,3.98E-03
4184,849130318.9,3.91E-03
4185,867755146.2,4.00E-03
4186,864010769.8,3.98E-03
4187,849479048.8,3.91E-03
4188,868320195.3,4.00E-03
4189,858013765.1,3.95E-03
4190,870204805.6,4.01E-03
4191,877003912.7,4.04E-03
4192,878005133,4.04E-03
4193,859960589.5,3.96E-03
4194,870987168.7,4.01E-03
4195,870204794.1,4.01E-03
4196,876612985.7,4.03E-03
4197,877527393.7,4.04E-03
4198,859591148.6,3.96E-03
4199,877003889.7,4.04E-03
4200,878005110,4.04E-03
4201,859960566.5,3.96E-03
4202,870987134.2,4.01E-03
4203,883412439.8,4.06E-03
4204,891903084.4,4.10E-03
4205,888790873.6,4.09E-03
4206,884021004.8,4.07E-03
4207,883412428.3,4.06E-03
4208,891577310,4.10E-03
4209,888464925.7,4.09E-03
4210,891903061.4,4.10E-03
4211,888790850.6,4.09E-03
4212,884020970.3,4.07E-03
4213,900069169.4,4.14E-03
4214,911185668.1,4.19E-03
4215,902657321.6,4.15E-03
4216,891155880.1,4.10E-03
4217,900807519,4.14E-03
4218,900069157.9,4.14E-03
4219,910751595.3,4.19E-03
4220,902331373.7,4.15E-03
4221,890808446.1,4.10E-03
4222,911185645.1,4.19E-03
4223,902657298.6,4.15E-03
4224,891155857.2,4.10E-03
4225,900807484.5,4.14E-03
4226,921870350,4.24E-03
4227,920477458.6,4.23E-03
4228,935074334.3,4.30E-03
4229,922933594.8,4.24E-03
4230,921870338.5,4.24E-03
4231,920043212.3,4.23E-03
4232,934423491.1,4.29E-03
4233,920477435.6,4.23E-03
4234,935074311.3,4.30E-03
4235,922933560.3,4.24E-03
4236,971156114.6,4.46E-03
4237,974029676.5,4.47E-03
4238,955982458.3,4.39E-03
4239,959868921.1,4.41E-03
4240,983033866,4.51E-03
4241,973346877.8,4.47E-03
4242,971156103.1,4.46E-03
4243,973031410.7,4.47E-03
4244,955201136.4,4.39E-03
4245,958914495.3,4.40E-03
4246,981451135.8,4.51E-03
4247,974029653.5,4.47E-03
4248,955982435.3,4.39E-03
4249,959868898.1,4.41E-03
4250,983033843,4.51E-03
4251,973346843.3,4.47E-03
4252,975884180.5,4.48E-03
4253,955604706.9,4.39E-03
4254,961185317.5,4.41E-03
4255,1005266774,4.61E-03
4256,977707943.7,4.49E-03
4257,975884169,4.48E-03
4258,955018148.6,4.38E-03
4259,960966279.8,4.41E-03
4260,1003336621,4.61E-03
4261,955604683.9,4.39E-03
4262,961185294.5,4.41E-03
4263,1005266751,4.61E-03
4264,977707909.2,4.49E-03
4265,975326535.4,4.46E-03
4266,957269963.9,4.38E-03
4267,974603863.4,4.46E-03
4268,961294115,4.40E-03
4269,1002185800,4.59E-03
4270,976971468.2,4.47E-03
4271,975326523.9,4.46E-03
4272,956728807.3,4.38E-03
4273,973694665.8,4.45E-03
4274,961034881.4,4.40E-03
4275,1000475715,4.58E-03
4276,957269940.9,4.38E-03
4277,974603840.4,4.46E-03
4278,961294092,4.40E-03
4279,1002185777,4.59E-03
4280,976971433.7,4.47E-03
4281,908707335.6,4.15E-03
4282,902166506.4,4.11E-03
4283,910811245.1,4.16E-03
4284,918346378.9,4.19E-03
4285,909076255.9,4.15E-03
4286,908707324.1,4.15E-03
4287,902036016.2,4.11E-03
4288,910680928.4,4.16E-03
4289,918064444.5,4.19E-03
4290,902166483.4,4.11E-03
4291,910811222.1,4.16E-03
4292,918346355.9,4.19E-03
4293,909076221.4,4.15E-03
4294,895493451.7,4.08E-03
4295,891271944.1,4.06E-03
4296,898813600.6,4.10E-03
4297,889472101,4.05E-03
4298,895667608.3,4.08E-03
4299,895493440.2,4.08E-03
4300,891228092.7,4.06E-03
4301,898748263,4.10E-03
4302,889384930.1,4.05E-03
4303,891271921.1,4.06E-03
4304,898813577.6,4.10E-03
4305,889472078,4.05E-03
4306,895667573.8,4.08E-03
4307,887005370.3,4.04E-03
4308,890326734.1,4.06E-03
4309,884256721.4,4.03E-03
4310,887071228.5,4.04E-03
4311,887005358.8,4.04E-03
4312,890304715.9,4.06E-03
4313,884234703.1,4.03E-03
4314,890326711.1,4.06E-03
4315,884256698.4,4.03E-03
4316,887071194,4.04E-03
4317,887664817.7,4.04E-03
4318,890700433.5,4.06E-03
4319,890099530.9,4.05E-03
4320,885258906.1,4.03E-03
4321,884452796.9,4.03E-03
4322,887687183,4.04E-03
4323,887664806.2,4.04E-03
4324,890678415.3,4.06E-03
4325,890099172.3,4.05E-03
4326,885236887.9,4.03E-03
4327,884452438.4,4.03E-03
4328,890700410.5,4.06E-03
4329,890099507.9,4.05E-03
4330,885258883.1,4.03E-03
4331,884452773.9,4.03E-03
4332,887687148.5,4.04E-03
4333,893713163.4,4.07E-03
4334,897808542,4.09E-03
4335,896189807.7,4.08E-03
4336,893757188.4,4.07E-03
4337,893713151.9,4.07E-03
4338,897764864.1,4.09E-03
4339,896189449.2,4.08E-03
4340,897808519,4.09E-03
4341,896189784.7,4.08E-03
4342,893757153.9,4.07E-03
4343,901880514.1,4.11E-03
4344,907273391.4,4.14E-03
4345,903684667.1,4.12E-03
4346,898475638.5,4.10E-03
4347,901946198.8,4.11E-03
4348,901880502.6,4.11E-03
4349,907208053.8,4.14E-03
4350,903684308.5,4.12E-03
4351,898410300.9,4.10E-03
4352,907273368.4,4.14E-03
4353,903684644.1,4.12E-03
4354,898475615.5,4.10E-03
4355,901946164.3,4.11E-03
4356,912599369.3,4.16E-03
4357,919287142.3,4.20E-03
4358,912733123.6,4.16E-03
4359,912816671.7,4.17E-03
4360,912599357.8,4.16E-03
4361,919135339.4,4.20E-03
4362,912689445.7,4.16E-03
4363,919287119.3,4.20E-03
4364,912733100.6,4.16E-03
4365,912816637.2,4.17E-03
4366,925821550.7,4.23E-03
4367,932441394.6,4.26E-03
4368,922728879.8,4.21E-03
4369,926233616.8,4.23E-03
4370,925821539.2,4.23E-03
4371,932159633.7,4.26E-03
4372,922620222.8,4.21E-03
4373,932441371.6,4.26E-03
4374,922728856.8,4.21E-03
4375,926233582.3,4.23E-03
4376,938778262.9,4.29E-03
4377,942428647.8,4.31E-03
4378,931313632.9,4.26E-03
4379,939471731.4,4.29E-03
4380,938778251.4,4.29E-03
4381,942038762,4.31E-03
4382,931118510.7,4.25E-03
4383,942428624.8,4.31E-03
4384,931313609.9,4.26E-03
4385,939471696.9,4.29E-03
4386,945688799.8,4.32E-03
4387,934093070.1,4.27E-03
4388,942516210.6,4.31E-03
4389,960125603.7,4.39E-03
4390,946533539,4.33E-03
4391,945688788.3,4.32E-03
4392,933832968.9,4.27E-03
4393,942191303.9,4.31E-03
4394,959410996.2,4.39E-03
4395,934093047.1,4.27E-03
4396,942516187.6,4.31E-03
4397,960125580.7,4.39E-03
4398,946533504.5,4.33E-03
4399,917522157.9,4.20E-03
4400,906149398.6,4.15E-03
4401,907328612.8,4.15E-03
4402,928270095,4.25E-03
4403,932420204.4,4.27E-03
4404,916959364.7,4.20E-03
4405,917522146.4,4.20E-03
4406,906690532.1,4.15E-03
4407,907501531.7,4.15E-03
4408,928269910,4.25E-03
4409,932723428.4,4.27E-03
4410,906149375.6,4.15E-03
4411,907328589.8,4.15E-03
4412,928270072,4.25E-03
4413,932420181.4,4.27E-03
4414,916959330.2,4.20E-03
4415,895318814,4.10E-03
4416,889397779.6,4.07E-03
4417,894364883.2,4.10E-03
4418,900809789.9,4.12E-03
4419,893674077.8,4.09E-03
4420,895318802.6,4.10E-03
4421,889916732.8,4.07E-03
4422,895208731.8,4.10E-03
4423,902260456.7,4.13E-03
4424,889397756.6,4.07E-03
4425,894364860.2,4.10E-03
4426,900809766.9,4.12E-03
4427,893674043.3,4.09E-03
4428,939979399.4,4.32E-03
4429,936345536.3,4.30E-03
4430,926120572,4.25E-03
4431,937291769.8,4.30E-03
4432,955657478.3,4.39E-03
4433,940913380.3,4.32E-03
4434,939979387.9,4.32E-03
4435,935889456.7,4.30E-03
4436,925816110.2,4.25E-03
4437,936922155.5,4.30E-03
4438,954876329.9,4.38E-03
4439,936345513.3,4.30E-03
4440,926120549,4.25E-03
4441,937291746.8,4.30E-03
4442,955657455.3,4.39E-03
4443,940913345.8,4.32E-03
4444,932277947.4,4.28E-03
4445,922129520.1,4.24E-03
4446,925658344.9,4.25E-03
4447,933168261.8,4.29E-03
4448,932277935.9,4.28E-03
4449,921846891.5,4.23E-03
4450,925245758.3,4.25E-03
4451,922129497.1,4.24E-03
4452,925658321.9,4.25E-03
4453,933168227.3,4.29E-03
4454,904990849.8,4.16E-03
4455,899659407.2,4.14E-03
4456,902621546.1,4.15E-03
4457,911971563.6,4.19E-03
4458,905621074.5,4.16E-03
4459,904990838.3,4.16E-03
4460,899333285.7,4.14E-03
4461,902382063.3,4.15E-03
4462,911645615.6,4.19E-03
4463,899659384.2,4.14E-03
4464,902621523.1,4.15E-03
4465,911971540.6,4.19E-03
4466,905621040,4.16E-03
4467,894002363.6,4.11E-03
4468,890037737,4.10E-03
4469,894362700.6,4.11E-03
4470,888946051.4,4.09E-03
4471,894654421.5,4.12E-03
4472,894002352.1,4.11E-03
4473,889603317.1,4.09E-03
4474,894036579.1,4.11E-03
4475,888620103.4,4.09E-03
4476,890037714,4.10E-03
4477,894362677.6,4.11E-03
4478,888946028.4,4.09E-03
4479,894654387,4.12E-03
4480,885638516.9,4.08E-03
4481,882668153.3,4.06E-03
4482,888769731.6,4.09E-03
4483,886615990.7,4.08E-03
4484,885638505.4,4.08E-03
4485,882060108.9,4.06E-03
4486,888205180.1,4.09E-03
4487,882668130.3,4.06E-03
4488,888769708.6,4.09E-03
4489,886615956.2,4.08E-03
4490,879110363.7,4.05E-03
4491,875663313.6,4.03E-03
4492,885944863.8,4.08E-03
4493,880196830,4.05E-03
4494,879110352.2,4.05E-03
4495,875054922.1,4.03E-03
4496,885141708.7,4.08E-03
4497,875663290.6,4.03E-03
4498,885944840.8,4.08E-03
4499,880196795.5,4.05E-03
4500,871605859,4.02E-03
4501,857187753.5,3.95E-03
4502,867466011.2,4.00E-03
4503,884673350.4,4.08E-03
4504,873495468.9,4.03E-03
4505,871605847.5,4.02E-03
4506,856751424.8,3.95E-03
4507,872335263.9,4.02E-03
4508,883825730.6,4.07E-03
4509,857187730.5,3.95E-03
4510,867465988.2,4.00E-03
4511,884673327.4,4.08E-03
4512,873495434.4,4.03E-03
4513,842337449.4,3.88E-03
4514,834480222.4,3.85E-03
4515,829337496.3,3.82E-03
4516,843599362.3,3.89E-03
4517,842337437.9,3.88E-03
4518,839479068.7,3.87E-03
4519,829139215.9,3.82E-03
4520,834480199.4,3.85E-03
4521,829337473.3,3.82E-03
4522,843599327.8,3.89E-03
4523,794335143.2,3.66E-03
4524,786689772.5,3.63E-03
4525,805271954.2,3.71E-03
4526,786245670.9,3.62E-03
4527,795056206,3.66E-03
4528,794335131.7,3.66E-03
4529,791839837.6,3.65E-03
4530,805181816,3.71E-03
4531,786220407.7,3.62E-03
4532,786689749.5,3.63E-03
4533,805271931.2,3.71E-03
4534,786245647.9,3.62E-03
4535,795056171.5,3.66E-03
4536,767631398.2,3.54E-03
4537,761638722.8,3.51E-03
4538,765810589.1,3.53E-03
4539,772861326.9,3.56E-03
4540,775229018.5,3.57E-03
4541,768157749.5,3.54E-03
4542,767631386.7,3.54E-03
4543,766831951.1,3.54E-03
4544,765871877.8,3.53E-03
4545,772879331,3.56E-03
4546,775226525.6,3.57E-03
4547,761638699.9,3.51E-03
4548,765810566.1,3.53E-03
4549,772861303.9,3.56E-03
4550,775228995.6,3.57E-03
4551,768157715,3.54E-03
4552,794160271.3,3.66E-03
4553,804770617,3.71E-03
4554,786449314.2,3.63E-03
4555,786136602,3.62E-03
4556,794881334.2,3.66E-03
4557,794160259.8,3.66E-03
4558,804723780.8,3.71E-03
4559,791642681.2,3.65E-03
4560,786111321.4,3.62E-03
4561,804770594,3.71E-03
4562,786449291.2,3.63E-03
4563,786136579,3.62E-03
4564,794881299.7,3.66E-03
4565,815335289.2,3.76E-03
4566,828357495.1,3.82E-03
4567,807141623.9,3.72E-03
4568,816207744.2,3.76E-03
4569,815335277.7,3.76E-03
4570,828202516.7,3.82E-03
4571,812291810.4,3.74E-03
4572,828357472.1,3.82E-03
4573,807141600.9,3.72E-03
4574,816207709.7,3.76E-03
4575,841248638.2,3.88E-03
4576,855949555,3.94E-03
4577,833696277.8,3.84E-03
4578,842467266.4,3.88E-03
4579,841248626.7,3.88E-03
4580,855578188,3.94E-03
4581,838803387.9,3.87E-03
4582,855949532,3.94E-03
4583,833696254.8,3.84E-03
4584,842467231.9,3.88E-03
4585,870283078.6,4.01E-03
4586,874817272.1,4.03E-03
4587,883738752.6,4.07E-03
4588,866182471.8,3.99E-03
4589,872172671.2,4.02E-03
4590,870283067.1,4.01E-03
4591,874208707,4.03E-03
4592,882956094.5,4.07E-03
4593,871181630.6,4.02E-03
4594,874817249.1,4.03E-03
4595,883738729.6,4.07E-03
4596,866182448.8,3.99E-03
4597,872172636.7,4.02E-03
4598,878741182.6,4.05E-03
4599,882340729.9,4.06E-03
4600,885767487.8,4.08E-03
4601,879805989.2,4.05E-03
4602,878741171.1,4.05E-03
4603,881754518.7,4.06E-03
4604,884964159.1,4.08E-03
4605,882340706.9,4.06E-03
4606,885767464.8,4.08E-03
4607,879805954.7,4.05E-03
4608,885352851.4,4.08E-03
4609,889816703.6,4.10E-03
4610,888632898.8,4.09E-03
4611,886330325.1,4.08E-03
4612,885352839.9,4.08E-03
4613,889382283.7,4.09E-03
4614,888090007,4.09E-03
4615,889816680.6,4.10E-03
4616,888632875.8,4.09E-03
4617,886330290.6,4.08E-03
4618,893845788.9,4.11E-03
4619,899545804.9,4.14E-03
4620,894292408.9,4.11E-03
4621,894497846.8,4.12E-03
4622,893845777.4,4.11E-03
4623,899219683.4,4.14E-03
4624,893966287.5,4.11E-03
4625,899545781.9,4.14E-03
4626,894292385.9,4.11E-03
4627,894497812.3,4.12E-03
4628,904920393.6,4.16E-03
4629,902597003.4,4.15E-03
4630,911947029.7,4.19E-03
4631,905550618.2,4.16E-03
4632,904920382.1,4.16E-03
4633,902357694.2,4.15E-03
4634,911621081.8,4.19E-03
4635,902596980.4,4.15E-03
4636,911947006.7,4.19E-03
4637,905550583.8,4.16E-03
4638,940001135.1,4.32E-03
4639,937552629.8,4.30E-03
4640,926163785,4.25E-03
4641,936388758.1,4.30E-03
4642,940956775.6,4.32E-03
4643,940001123.6,4.32E-03
4644,937183015.5,4.30E-03
4645,925859323.2,4.25E-03
4646,935932678.5,4.30E-03
4647,937552606.8,4.30E-03
4648,926163762,4.25E-03
4649,936388735.1,4.30E-03
4650,940956741.1,4.32E-03
4651,934711982.9,4.29E-03
4652,919889535.1,4.22E-03
4653,924656416.5,4.24E-03
4654,935256436.5,4.29E-03
4655,934711971.4,4.29E-03
4656,919715031.4,4.22E-03
4657,924676502.9,4.24E-03
4658,919889512.1,4.22E-03
4659,924656393.5,4.24E-03
4660,935256402,4.29E-03
4661,893906066.1,4.10E-03
4662,894213514.8,4.10E-03
4663,887839305.1,4.07E-03
4664,903994062.5,4.14E-03
4665,899997101.2,4.12E-03
4666,892197392,4.09E-03
4667,893906054.6,4.10E-03
4668,895035703.7,4.10E-03
4669,888358084.9,4.07E-03
4670,904555814.5,4.15E-03
4671,901468560,4.13E-03
4672,894213491.8,4.10E-03
4673,887839282.1,4.07E-03
4674,903994039.5,4.14E-03
4675,899997078.2,4.12E-03
4676,892197357.5,4.09E-03
4677,895340896.5,4.10E-03
4678,905892334.7,4.15E-03
4679,889354700.8,4.07E-03
4680,900491746.9,4.12E-03
4681,893696160.3,4.09E-03
4682,895340885,4.10E-03
4683,906454954.4,4.15E-03
4684,889873827.6,4.07E-03
4685,901920753.9,4.13E-03
4686,905892311.7,4.15E-03
4687,889354677.8,4.07E-03
4688,900491723.9,4.12E-03
4689,893696125.8,4.09E-03
4690,917007433.8,4.20E-03
4691,927841142,4.25E-03
4692,907049707,4.15E-03
4693,931842592.3,4.27E-03
4694,916487960,4.19E-03
4695,917007422.3,4.20E-03
4696,927841130.5,4.25E-03
4697,907222452.4,4.15E-03
4698,932167649.6,4.27E-03
4699,927841119,4.25E-03
4700,907049684,4.15E-03
4701,931842569.3,4.27E-03
4702,916487925.5,4.19E-03
4703,938655608.5,4.29E-03
4704,925810028.9,4.24E-03
4705,942171987.6,4.31E-03
4706,939153966.2,4.30E-03
4707,938655597,4.29E-03
4708,925636392.9,4.23E-03
4709,941847080.8,4.31E-03
4710,925810005.9,4.24E-03
4711,942171964.6,4.31E-03
4712,939153931.7,4.30E-03
4713,938582881,4.29E-03
4714,932331436.7,4.26E-03
4715,931205228,4.26E-03
4716,942168981,4.31E-03
4717,945338314.8,4.32E-03
4718,939254863.3,4.29E-03
4719,938582869.5,4.29E-03
4720,932071335.5,4.26E-03
4721,931010105.9,4.25E-03
4722,941778921.7,4.31E-03
4723,944818297.4,4.32E-03
4724,932331413.7,4.26E-03
4725,931205205,4.26E-03
4726,942168958,4.31E-03
4727,945338291.8,4.32E-03
4728,939254828.8,4.29E-03
4729,925818676.5,4.23E-03
4730,919368824.3,4.20E-03
4731,922705898.9,4.21E-03
4732,926898925.8,4.23E-03
4733,926230742.5,4.23E-03
4734,925818665,4.23E-03
4735,919216848,4.20E-03
4736,922618901.6,4.21E-03
4737,926595505.2,4.23E-03
4738,919368801.3,4.20E-03
4739,922705875.9,4.21E-03
4740,926898902.8,4.23E-03
4741,926230708.1,4.23E-03
4742,912787093.7,4.17E-03
4743,907461983.4,4.14E-03
4744,912816185.2,4.17E-03
4745,912982736.5,4.17E-03
4746,912787082.2,4.17E-03
4747,907374986.1,4.14E-03
4748,912772680.8,4.17E-03
4749,907461960.4,4.14E-03
4750,912816162.2,4.17E-03
4751,912982702,4.17E-03
4752,902048487.5,4.11E-03
4753,897849160.3,4.09E-03
4754,903790255.9,4.12E-03
4755,902135831.8,4.11E-03
4756,902048476,4.11E-03
4757,897827142.1,4.09E-03
4758,903768237.6,4.12E-03
4759,897849137.3,4.09E-03
4760,903790232.9,4.12E-03
4761,902135797.3,4.11E-03
4762,893626773.7,4.07E-03
4763,890658924.7,4.06E-03
4764,896189006.9,4.08E-03
4765,893670798.7,4.07E-03
4766,893626762.2,4.07E-03
4767,890636906.5,4.06E-03
4768,896166988.6,4.08E-03
4769,890658901.7,4.06E-03
4770,896188983.9,4.08E-03
4771,893670764.2,4.07E-03
4772,887668189.8,4.04E-03
4773,885305944.3,4.03E-03
4774,890100291.4,4.05E-03
4775,884587350.2,4.03E-03
4776,887690555.1,4.04E-03
4777,887668178.3,4.04E-03
4778,885305585.7,4.03E-03
4779,890078273.2,4.05E-03
4780,884565332,4.03E-03
4781,885305921.3,4.03E-03
4782,890100268.4,4.05E-03
4783,884587327.2,4.03E-03
4784,887690520.6,4.04E-03
4785,882942299,4.02E-03
4786,885030275.2,4.03E-03
4787,880946533,4.01E-03
4788,880422008.3,4.01E-03
4789,882964664.4,4.02E-03
4790,882942287.6,4.02E-03
4791,885008430.5,4.03E-03
4792,880946347.9,4.01E-03
4793,880399990.1,4.01E-03
4794,885030252.2,4.03E-03
4795,880946510,4.01E-03
4796,880421985.3,4.01E-03
4797,882964629.9,4.02E-03
4798,871992990.2,3.97E-03
4799,868822388.3,3.95E-03
4800,871231826.2,3.96E-03
4801,874926041.2,3.98E-03
4802,872929352,3.97E-03
4803,872015702.6,3.97E-03
4804,871992978.7,3.97E-03
4805,868800196.5,3.95E-03
4806,871231294.1,3.96E-03
4807,874925682.7,3.98E-03
4808,872928820,3.97E-03
4809,868822365.3,3.95E-03
4810,871231803.2,3.96E-03
4811,874926018.2,3.98E-03
4812,872929329.1,3.97E-03
4813,872015668.1,3.97E-03
4814,865628379.9,3.94E-03
4815,862628799.5,3.92E-03
4816,865861999.6,3.94E-03
4817,865651265.8,3.94E-03
4818,865628368.4,3.94E-03
4819,862628267.4,3.92E-03
4820,865839634.3,3.94E-03
4821,862628776.5,3.92E-03
4822,865861976.6,3.94E-03
4823,865651231.3,3.94E-03
4824,859648437.9,3.91E-03
4825,860900930.5,3.91E-03
4826,857448704.2,3.90E-03
4827,857552617.3,3.90E-03
4828,859649664.1,3.91E-03
4829,859648426.4,3.91E-03
4830,860878565.2,3.91E-03
4831,857447998.6,3.90E-03
4832,857573744.9,3.90E-03
4833,860900907.5,3.91E-03
4834,857448681.2,3.90E-03
4835,857552594.3,3.90E-03
4836,859649629.6,3.91E-03
4837,853626747,3.88E-03
4838,854427297.6,3.89E-03
4839,856004502,3.89E-03
4840,854427289.2,3.89E-03
4841,853606660.6,3.88E-03
4842,853626735.5,3.88E-03
4843,854448251.6,3.89E-03
4844,855982136.7,3.89E-03
4845,854448243.3,3.89E-03
4846,854427274.6,3.89E-03
4847,856004479,3.89E-03
4848,854427266.2,3.89E-03
4849,853606626.1,3.88E-03
4850,855245678.7,3.89E-03
4851,857428631.4,3.90E-03
4852,857320545.2,3.90E-03
4853,855225592.3,3.89E-03
4854,855245667.2,3.89E-03
4855,857427925.8,3.90E-03
4856,857298006.4,3.90E-03
4857,857428608.4,3.90E-03
4858,857320522.2,3.90E-03
4859,855225557.8,3.89E-03
4860,859608102,3.91E-03
4861,862589686.6,3.92E-03
4862,860880692.5,3.91E-03
4863,857495654.3,3.90E-03
4864,859609501.7,3.91E-03
4865,859608090.5,3.91E-03
4866,862588981,3.92E-03
4867,860858500.8,3.91E-03
4868,857516608.3,3.90E-03
4869,862589663.6,3.92E-03
4870,860880669.5,3.91E-03
4871,857495631.3,3.90E-03
4872,859609467.2,3.91E-03
4873,865568483.2,3.94E-03
4874,868739972.5,3.95E-03
4875,865801929.5,3.94E-03
4876,864991443.5,3.94E-03
4877,865591369.1,3.94E-03
4878,865568471.7,3.94E-03
4879,868739440.5,3.95E-03
4880,865801397.4,3.94E-03
4881,864990737.9,3.94E-03
4882,868739949.5,3.95E-03
4883,865801906.5,3.94E-03
4884,864991420.5,3.94E-03
4885,865591334.6,3.94E-03
4886,871909888.6,3.97E-03
4887,874841733.1,3.98E-03
4888,871191176.5,3.96E-03
4889,872674881.6,3.97E-03
4890,871932601,3.97E-03
4891,871909877.1,3.97E-03
4892,874841201,3.98E-03
4893,871190644.4,3.96E-03
4894,872674349.5,3.97E-03
4895,874841710.1,3.98E-03
4896,871191153.5,3.96E-03
4897,872674858.6,3.97E-03
4898,871932566.5,3.97E-03
4899,877772698.5,3.99E-03
4900,876338002,3.99E-03
4901,880312412.7,4.01E-03
4902,879507518.2,4.00E-03
4903,877773577.6,3.99E-03
4904,877772687,3.99E-03
4905,876315810.2,3.99E-03
4906,880290220.9,4.01E-03
4907,879506986.1,4.00E-03
4908,876337979,3.99E-03
4909,880312389.7,4.01E-03
4910,879507495.2,4.00E-03
4911,877773543.1,3.99E-03
4912,868193507.3,4.00E-03
4913,844755200.3,3.90E-03
4914,885449251,4.08E-03
4915,856323616.3,3.95E-03
4916,852569768.8,3.93E-03
4917,868193495.8,4.00E-03
4918,855034445.8,3.94E-03
4919,895534097.3,4.13E-03
4920,854013986.8,3.94E-03
4921,844755177.4,3.90E-03
4922,885449228,4.08E-03
4923,856323593.3,3.95E-03
4924,852569734.3,3.93E-03
4925,831599470.6,3.84E-03
4926,812982680.4,3.75E-03
4927,820850951.9,3.79E-03
4928,815565221.8,3.76E-03
4929,831599459.1,3.84E-03
4930,823304846.1,3.80E-03
4931,818757415.9,3.78E-03
4932,812982657.4,3.75E-03
4933,820850928.9,3.79E-03
4934,815565187.4,3.76E-03
4935,804688767.4,3.71E-03
4936,789259004.8,3.64E-03
4937,795225319.4,3.67E-03
4938,807840145.3,3.72E-03
4939,788590025.5,3.64E-03
4940,804688755.9,3.71E-03
4941,799602622,3.69E-03
4942,793066509.4,3.66E-03
4943,812968724.2,3.75E-03
4944,789258981.8,3.64E-03
4945,795225296.4,3.67E-03
4946,807840122.3,3.72E-03
4947,788589991,3.64E-03
4948,784194276.1,3.62E-03
4949,771758113.7,3.56E-03
4950,776362904.9,3.58E-03
4951,768031006.3,3.54E-03
4952,784194264.6,3.62E-03
4953,782079897.6,3.61E-03
4954,774138872.9,3.57E-03
4955,771758090.7,3.56E-03
4956,776362881.9,3.58E-03
4957,768030971.8,3.54E-03
4958,769642989,3.55E-03
4959,760091382.3,3.51E-03
4960,763116404.9,3.52E-03
4961,771312519.7,3.56E-03
4962,753479962.2,3.47E-03
4963,769642977.5,3.55E-03
4964,770413062.1,3.55E-03
4965,760870591.7,3.51E-03
4966,776462498,3.58E-03
4967,760091359.3,3.51E-03
4968,763116381.9,3.52E-03
4969,771312496.7,3.56E-03
4970,753479927.7,3.47E-03
4971,760860466.2,3.51E-03
4972,755160073.6,3.48E-03
4973,754214779.8,3.48E-03
4974,761660399.2,3.51E-03
4975,744675935.9,3.43E-03
4976,760860454.7,3.51E-03
4977,752914173.7,3.47E-03
4978,764536407.6,3.53E-03
4979,766831967.8,3.54E-03
4980,755160050.6,3.48E-03
4981,754214756.8,3.48E-03
4982,761660376.3,3.51E-03
4983,744675901.4,3.43E-03
4984,769642955.6,3.55E-03
4985,771605135.3,3.56E-03
4986,763116371.4,3.52E-03
4987,760091339.9,3.51E-03
4988,771290826.6,3.56E-03
4989,753479928.8,3.47E-03
4990,769642944.1,3.55E-03
4991,781970203.9,3.61E-03
4992,760870558.3,3.51E-03
4993,770413037,3.55E-03
4994,776462464.6,3.58E-03
4995,771605112.3,3.56E-03
4996,763116348.4,3.52E-03
4997,760091316.9,3.51E-03
4998,771290803.6,3.56E-03
4999,753479894.3,3.47E-03
5000,783931567.9,3.62E-03
5001,776209935.5,3.58E-03
5002,788821466.4,3.64E-03
5003,767660086.5,3.54E-03
5004,783931556.4,3.62E-03
5005,774007528.5,3.57E-03
5006,799208333.5,3.69E-03
5007,776209912.5,3.58E-03
5008,788821443.4,3.64E-03
5009,767660052,3.54E-03
5010,911997686.9,4.21E-03
5011,902015012.8,4.16E-03
5012,929023336.1,4.28E-03
5013,906977812,4.18E-03
5014,884448840.8,4.08E-03
5015,897477342.8,4.14E-03
5016,911997675.4,4.21E-03
5017,906408186.3,4.18E-03
5018,938416044.2,4.33E-03
5019,904149235.1,4.17E-03
5020,894641933.4,4.13E-03
5021,902014989.8,4.16E-03
5022,929023313.1,4.28E-03
5023,906977789,4.18E-03
5024,884448817.8,4.08E-03
5025,897477308.3,4.14E-03
5026,896419282.4,4.13E-03
5027,894697887.8,4.12E-03
5028,898738995.1,4.14E-03
5029,899326411.6,4.14E-03
5030,896419270.9,4.13E-03
5031,893699622,4.12E-03
5032,897220168.1,4.13E-03
5033,894697864.8,4.12E-03
5034,898738972.1,4.14E-03
5035,899326377.1,4.14E-03
5036,891995670.3,4.11E-03
5037,892065556.7,4.11E-03
5038,890113282.7,4.10E-03
5039,893450351.2,4.11E-03
5040,891995658.8,4.11E-03
5041,891305894.5,4.10E-03
5042,889180169.5,4.09E-03
5043,892065533.7,4.11E-03
5044,890113259.7,4.10E-03
5045,893450316.7,4.11E-03
5046,891373525,4.10E-03
5047,893112074.7,4.11E-03
5048,887672418,4.09E-03
5049,892480956.8,4.11E-03
5050,891373513.5,4.10E-03
5051,892677481.3,4.11E-03
5052,887107693,4.08E-03
5053,893112051.7,4.11E-03
5054,887672395,4.09E-03
5055,892480922.3,4.11E-03
5056,894436649.5,4.11E-03
5057,897344648.6,4.13E-03
5058,890169440.8,4.09E-03
5059,894980756,4.12E-03
5060,894436638,4.11E-03
5061,897105165.9,4.13E-03
5062,889929784.5,4.09E-03
5063,897344625.6,4.13E-03
5064,890169417.8,4.09E-03
5065,894980721.5,4.12E-03
5066,900013165,4.14E-03
5067,903399065.4,4.15E-03
5068,894962737,4.11E-03
5069,900383647,4.14E-03
5070,900013153.5,4.14E-03
5071,903246394.9,4.15E-03
5072,894874872.1,4.11E-03
5073,903399042.4,4.15E-03
5074,894962714,4.11E-03
5075,900383612.5,4.14E-03
5076,906610982.7,4.17E-03
5077,909240876.6,4.18E-03
5078,899845795.6,4.13E-03
5079,912750132.9,4.19E-03
5080,906872992.8,4.17E-03
5081,906610971.2,4.17E-03
5082,909110039.3,4.18E-03
5083,899844742.9,4.13E-03
5084,912510823.7,4.19E-03
5085,909240853.6,4.18E-03
5086,899845772.6,4.13E-03
5087,912750109.9,4.19E-03
5088,906872958.3,4.17E-03
5089,911718620.5,4.19E-03
5090,911946198.3,4.19E-03
5091,902457537.4,4.14E-03
5092,922151073.4,4.24E-03
5093,912002290.3,4.19E-03
5094,911718609,4.19E-03
5095,911793527.8,4.19E-03
5096,902456484.7,4.14E-03
5097,921868444.9,4.23E-03
5098,911946175.3,4.19E-03
5099,902457514.4,4.14E-03
5100,922151050.4,4.24E-03
5101,912002255.8,4.19E-03
5102,912020584.9,4.19E-03
5103,908500863.8,4.17E-03
5104,900391828.5,4.13E-03
5105,912325914.4,4.19E-03
5106,912020573.4,4.19E-03
5107,908391512.7,4.17E-03
5108,900347630,4.13E-03
5109,908500840.8,4.17E-03
5110,900391805.5,4.13E-03
5111,912325879.9,4.19E-03
5112,904891715.9,4.15E-03
5113,892431735.6,4.09E-03
5114,898553285.9,4.12E-03
5115,905088747,4.15E-03
5116,904891704.4,4.15E-03
5117,892365877.4,4.09E-03
5118,898508913.8,4.12E-03
5119,892431712.6,4.09E-03
5120,898553262.9,4.12E-03
5121,905088712.5,4.15E-03
5122,882292018,4.04E-03
5123,882982920.5,4.04E-03
5124,872978386.8,4.00E-03
5125,887166798.2,4.07E-03
5126,881882404.3,4.04E-03
5127,882292006.5,4.04E-03
5128,883198638.2,4.04E-03
5129,872955847.9,4.00E-03
5130,887295703.6,4.07E-03
5131,882982897.5,4.04E-03
5132,872978363.8,4.00E-03
5133,887166775.2,4.07E-03
5134,881882369.8,4.04E-03
5135,883909465,4.05E-03
5136,890511726,4.08E-03
5137,875044266.6,4.01E-03
5138,883477844.6,4.04E-03
5139,883909453.6,4.05E-03
5140,890640978.5,4.08E-03
5141,875021727.7,4.01E-03
5142,890511703,4.08E-03
5143,875044243.6,4.01E-03
5144,883477810.1,4.04E-03
5145,897265072.6,4.11E-03
5146,905038865.3,4.14E-03
5147,887245316.8,4.06E-03
5148,897158000.4,4.11E-03
5149,897265061.1,4.11E-03
5150,905016673.6,4.14E-03
5151,887179632.1,4.06E-03
5152,905038842.3,4.14E-03
5153,887245293.8,4.06E-03
5154,897157965.9,4.11E-03
5155,912791854.5,4.18E-03
5156,917558595.3,4.20E-03
5157,902418776,4.13E-03
5158,912966184.7,4.18E-03
5159,912791843,4.18E-03
5160,917449764.8,4.20E-03
5161,902353091.4,4.13E-03
5162,917558572.3,4.20E-03
5163,902418753,4.13E-03
5164,912966150.2,4.18E-03
5165,922217893.8,4.22E-03
5166,922980369.5,4.22E-03
5167,913679294.3,4.18E-03
5168,933920380.4,4.27E-03
5169,922435196.2,4.22E-03
5170,922217882.3,4.22E-03
5171,922893198.6,4.22E-03
5172,913678588.7,4.18E-03
5173,933660105.6,4.27E-03
5174,922980346.5,4.22E-03
5175,913679271.3,4.18E-03
5176,933920357.4,4.27E-03
5177,922435161.8,4.22E-03
5178,923656368.4,4.22E-03
5179,921604299.9,4.21E-03
5180,918491820.8,4.20E-03
5181,923765372.5,4.22E-03
5182,923656356.9,4.22E-03
5183,921560622,4.21E-03
5184,918577927.5,4.20E-03
5185,921604276.9,4.21E-03
5186,918491797.8,4.20E-03
5187,923765338,4.22E-03
5188,919508553.5,4.20E-03
5189,916156556.8,4.18E-03
5190,917828265,4.19E-03
5191,919509259.1,4.20E-03
5192,919508542,4.20E-03
5193,916178031.5,4.18E-03
5194,917936031.3,4.19E-03
5195,916156533.8,4.18E-03
5196,917828242,4.19E-03
5197,919509224.6,4.20E-03
5198,912803854.6,4.17E-03
5199,909147754.7,4.15E-03
5200,913613562.1,4.17E-03
5201,912761240.9,4.17E-03
5202,912803843.1,4.17E-03
5203,909169055.9,4.15E-03
5204,913721502,4.17E-03
5205,909147731.7,4.15E-03
5206,913613539.1,4.17E-03
5207,912761206.4,4.17E-03
5208,905511914.8,4.13E-03
5209,902111219.2,4.11E-03
5210,907578231.1,4.14E-03
5211,905447641.4,4.13E-03
5212,905511903.3,4.13E-03
5213,902110860.7,4.11E-03
5214,907642851.6,4.14E-03
5215,902111196.2,4.11E-03
5216,907578208.1,4.14E-03
5217,905447606.9,4.13E-03
5218,898730957.1,4.10E-03
5219,895632803,4.08E-03
5220,900974195.1,4.11E-03
5221,898709829.5,4.10E-03
5222,898730945.6,4.10E-03
5223,895610784.7,4.08E-03
5224,900995669.8,4.11E-03
5225,895632780,4.08E-03
5226,900974172.1,4.11E-03
5227,898709795,4.10E-03
5228,892511763,4.06E-03
5229,889826878.2,4.05E-03
5230,894495778.9,4.07E-03
5231,892555614.5,4.06E-03
5232,892511751.5,4.06E-03
5233,889805033.5,4.05E-03
5234,894473760.7,4.07E-03
5235,889826855.2,4.05E-03
5236,894495755.9,4.07E-03
5237,892555580,4.06E-03
5238,887119281.1,4.04E-03
5239,884778521.8,4.03E-03
5240,888560069.6,4.04E-03
5241,887162959,4.04E-03
5242,887119269.6,4.04E-03
5243,884756677.1,4.03E-03
5244,888516565.2,4.04E-03
5245,884778498.8,4.03E-03
5246,888560046.6,4.04E-03
5247,887162924.5,4.04E-03
5248,882436883.4,4.01E-03
5249,880692870.8,4.01E-03
5250,883574783.5,4.02E-03
5251,880679721.1,4.00E-03
5252,882459075.2,4.01E-03
5253,882436871.9,4.01E-03
5254,880671026,4.00E-03
5255,883531279.1,4.02E-03
5256,880679362.5,4.00E-03
5257,880692847.8,4.01E-03
5258,883574760.5,4.02E-03
5259,880679698.1,4.00E-03
5260,882459040.7,4.01E-03
5261,878928054.5,4.00E-03
5262,877472912.9,3.99E-03
5263,876905589.5,3.99E-03
5264,878907100.5,4.00E-03
5265,878928043,4.00E-03
5266,877494214,3.99E-03
5267,876905230.9,3.99E-03
5268,877472889.9,3.99E-03
5269,876905566.5,3.99E-03
5270,878907066,4.00E-03
5271,870491442.8,3.96E-03
5272,868293964.9,3.95E-03
5273,869620939.2,3.95E-03
5274,872687717.4,3.97E-03
5275,870514155.2,3.96E-03
5276,870491431.3,3.96E-03
5277,868271773.1,3.95E-03
5278,869620580.6,3.95E-03
5279,872687185.3,3.97E-03
5280,868293941.9,3.95E-03
5281,869620916.2,3.95E-03
5282,872687694.4,3.97E-03
5283,870514120.7,3.96E-03
5284,866073080.4,3.94E-03
5285,864114206.2,3.93E-03
5286,865637679.5,3.93E-03
5287,866139285.7,3.94E-03
5288,866073068.9,3.94E-03
5289,864070354.8,3.93E-03
5290,865593654.5,3.93E-03
5291,864114183.2,3.93E-03
5292,865637656.5,3.93E-03
5293,866139251.2,3.94E-03
5294,862109571.7,3.92E-03
5295,862149989.7,3.92E-03
5296,860753871.6,3.91E-03
5297,862219269.9,3.92E-03
5298,862109560.2,3.92E-03
5299,862105964.7,3.92E-03
5300,860709846.6,3.91E-03
5301,862149966.7,3.92E-03
5302,860753848.6,3.91E-03
5303,862219235.4,3.92E-03
5304,858360238.8,3.90E-03
5305,858879213.5,3.90E-03
5306,858919795.1,3.90E-03
5307,858900864.8,3.90E-03
5308,858491596.6,3.90E-03
5309,858360227.3,3.90E-03
5310,858835188.5,3.90E-03
5311,858853936.9,3.90E-03
5312,858835180.1,3.90E-03
5313,858879190.5,3.90E-03
5314,858919772.1,3.90E-03
5315,858900841.8,3.90E-03
5316,858491562.1,3.90E-03
5317,859351560.2,3.91E-03
5318,860775556.4,3.91E-03
5319,859759672.3,3.91E-03
5320,859482918.1,3.91E-03
5321,859351548.7,3.91E-03
5322,860709698.2,3.91E-03
5323,859715647.3,3.91E-03
5324,860775533.4,3.91E-03
5325,859759649.3,3.91E-03
5326,859482883.6,3.91E-03
5327,862131264.8,3.92E-03
5328,864095017.8,3.93E-03
5329,862150023.1,3.92E-03
5330,862219303.3,3.92E-03
5331,862131253.3,3.92E-03
5332,864051166.3,3.93E-03
5333,862105998.2,3.92E-03
5334,864094994.8,3.93E-03
5335,862150000.1,3.92E-03
5336,862219268.8,3.92E-03
5337,866034670.2,3.94E-03
5338,868254001.1,3.95E-03
5339,865618325.9,3.93E-03
5340,866100875.4,3.94E-03
5341,866034658.7,3.94E-03
5342,868231809.3,3.95E-03
5343,865574474.4,3.93E-03
5344,868253978.1,3.95E-03
5345,865618302.9,3.93E-03
5346,866100840.9,3.94E-03
5347,870449925.5,3.96E-03
5348,872687271.8,3.97E-03
5349,869621873.7,3.95E-03
5350,870494297.5,3.96E-03
5351,870449914,3.96E-03
5352,872665080,3.97E-03
5353,869599681.9,3.95E-03
5354,872687248.8,3.97E-03
5355,869621850.7,3.95E-03
5356,870494263,3.96E-03
5357,874902079.3,3.98E-03
5358,876904639.9,3.99E-03
5359,873686235.6,3.97E-03
5360,874881298.8,3.98E-03
5361,874902067.8,3.98E-03
5362,876904281.3,3.99E-03
5363,873707536.8,3.97E-03
5364,876904616.9,3.99E-03
5365,873686212.7,3.97E-03
5366,874881264.3,3.98E-03
5367,878929022.2,4.00E-03
5368,880650006.7,4.00E-03
5369,877432817.3,3.99E-03
5370,880880265.3,4.01E-03
5371,878907894.6,4.00E-03
5372,878929010.7,4.00E-03
5373,880649821.7,4.00E-03
5374,877454291.9,3.99E-03
5375,880879906.7,4.01E-03
5376,880649983.7,4.00E-03
5377,877432794.3,3.99E-03
5378,880880242.3,4.01E-03
5379,878907860.1,4.00E-03
5380,882371847.5,4.01E-03
5381,884755937.3,4.03E-03
5382,880659219.3,4.00E-03
5383,883553075.3,4.02E-03
5384,882394039.2,4.01E-03
5385,882371836,4.01E-03
5386,884734092.6,4.02E-03
5387,880658860.8,4.00E-03
5388,883509570.9,4.02E-03
5389,884755914.3,4.03E-03
5390,880659196.3,4.00E-03
5391,883553052.3,4.02E-03
5392,882394004.8,4.01E-03
5393,887095655.2,4.04E-03
5394,889826994.2,4.05E-03
5395,888559847.3,4.04E-03
5396,884984113.5,4.03E-03
5397,887161166.3,4.04E-03
5398,887095643.7,4.04E-03
5399,889804975.9,4.05E-03
5400,888494683.2,4.04E-03
5401,884962268.8,4.03E-03
5402,889826971.2,4.05E-03
5403,888559824.3,4.04E-03
5404,884984090.5,4.03E-03
5405,887161131.8,4.04E-03
5406,892535447.3,4.06E-03
5407,894475978.9,4.07E-03
5408,895612994.2,4.08E-03
5409,892579298.7,4.06E-03
5410,892535435.8,4.06E-03
5411,894454134.2,4.07E-03
5412,895612635.7,4.08E-03
5413,894475955.9,4.07E-03
5414,895612971.2,4.08E-03
5415,892579264.2,4.06E-03
5416,905512030,4.13E-03
5417,907578181.5,4.14E-03
5418,902090369,4.11E-03
5419,909147696.4,4.15E-03
5420,905469242.7,4.13E-03
5421,905512018.5,4.13E-03
5422,907642802,4.14E-03
5423,902090183.9,4.11E-03
5424,909168997.5,4.15E-03
5425,907578158.6,4.14E-03
5426,902090346,4.11E-03
5427,909147673.4,4.15E-03
5428,905469208.2,4.13E-03
5429,919508495.1,4.20E-03
5430,916156672,4.18E-03
5431,917828215.4,4.19E-03
5432,921604241.6,4.21E-03
5433,919509200.7,4.20E-03
5434,919508483.6,4.20E-03
5435,916177973.1,4.18E-03
5436,917935981.8,4.19E-03
5437,921560563.7,4.21E-03
5438,916156649,4.18E-03
5439,917828192.4,4.19E-03
5440,921604218.6,4.21E-03
5441,919509166.2,4.20E-03
5442,882205320.9,4.04E-03
5443,887123420.4,4.06E-03
5444,872935017.9,4.00E-03
5445,883004521.8,4.04E-03
5446,887969196,4.07E-03
5447,881795707.2,4.04E-03
5448,882205309.4,4.04E-03
5449,887252325.9,4.07E-03
5450,872934138.7,4.00E-03
5451,883220066,4.04E-03
5452,888509635.5,4.07E-03
5453,887123397.4,4.06E-03
5454,872934994.9,4.00E-03
5455,883004498.8,4.04E-03
5456,887969173,4.07E-03
5457,881795672.7,4.04E-03
5458,892167475.4,4.09E-03
5459,898509908.1,4.12E-03
5460,880977095.8,4.04E-03
5461,903014435.1,4.14E-03
5462,892061444.3,4.09E-03
5463,892167463.9,4.09E-03
5464,898487195.8,4.12E-03
5465,880911237.6,4.04E-03
5466,903186312.8,4.14E-03
5467,898509885.1,4.12E-03
5468,880977072.8,4.04E-03
5469,903014412.1,4.14E-03
5470,892061409.8,4.09E-03
5471,904826678.5,4.15E-03
5472,892366707,4.09E-03
5473,908457486.1,4.17E-03
5474,919650170,4.22E-03
5475,905023883.1,4.15E-03
5476,904826667,4.15E-03
5477,892300848.8,4.09E-03
5478,908326475.3,4.17E-03
5479,919454006.7,4.22E-03
5480,892366684,4.09E-03
5481,908457463.1,4.17E-03
5482,919650147.1,4.22E-03
5483,905023848.6,4.15E-03
5484,911675416.3,4.19E-03
5485,902414168.4,4.14E-03
5486,909219332.1,4.18E-03
5487,911881160.8,4.19E-03
5488,911959086.1,4.19E-03
5489,911675404.8,4.19E-03
5490,902413289.3,4.14E-03
5491,909066835.1,4.18E-03
5492,911750150.1,4.19E-03
5493,902414145.4,4.14E-03
5494,909219309.1,4.18E-03
5495,911881137.8,4.19E-03
5496,911959051.6,4.19E-03
5497,894398825,4.11E-03
5498,893097992.3,4.11E-03
5499,890150508.1,4.09E-03
5500,897325880.7,4.13E-03
5501,894964591.2,4.12E-03
5502,894398813.5,4.11E-03
5503,892663572.4,4.11E-03
5504,889911025.4,4.09E-03
5505,897086398,4.13E-03
5506,893097969.3,4.11E-03
5507,890150485.1,4.09E-03
5508,897325857.7,4.13E-03
5509,894964556.7,4.12E-03
5510,891361698.6,4.10E-03
5511,892052342.2,4.11E-03
5512,887655741.4,4.09E-03
5513,892447470.8,4.11E-03
5514,891361687.1,4.10E-03
5515,891292680,4.10E-03
5516,887069530.2,4.08E-03
5517,892052319.2,4.11E-03
5518,887655718.4,4.09E-03
5519,892447436.3,4.11E-03
5520,892002727.3,4.11E-03
5521,894963820.1,4.12E-03
5522,889925237.7,4.10E-03
5523,893435748.6,4.11E-03
5524,892002715.8,4.11E-03
5525,893943894.6,4.12E-03
5526,888992124.5,4.09E-03
5527,894963797.1,4.12E-03
5528,889925214.7,4.10E-03
5529,893435714.1,4.11E-03
5530,896900545,4.13E-03
5531,902666151.7,4.16E-03
5532,898808662.7,4.14E-03
5533,899850958.8,4.15E-03
5534,896900533.5,4.13E-03
5535,907037682.8,4.18E-03
5536,897224874,4.13E-03
5537,902666128.7,4.16E-03
5538,898808639.7,4.14E-03
5539,899850924.3,4.15E-03
5540,912797007.8,4.21E-03
5541,929238287.6,4.28E-03
5542,907388091.7,4.19E-03
5543,898211754,4.14E-03
5544,912796996.3,4.21E-03
5545,938652603.4,4.33E-03
5546,904537820.4,4.17E-03
5547,929238264.6,4.28E-03
5548,907388068.7,4.19E-03
5549,898211719.5,4.14E-03
5550,955452573.7,4.41E-03
5551,925787198.7,4.27E-03
5552,991985520.2,4.58E-03
5553,945023914.3,4.36E-03
5554,916245529.2,4.22E-03
5555,955452562.2,4.41E-03
5556,929249561.1,4.28E-03
5557,990155423.2,4.57E-03
5558,924859842.2,4.26E-03
5559,925787175.7,4.27E-03
5560,991985497.2,4.58E-03
5561,945023879.8,4.36E-03
5562,916245506.2,4.22E-03
5563,899550483.5,4.14E-03
5564,894166814.8,4.12E-03
5565,903670173.2,4.16E-03
5566,881315933.6,4.06E-03
5567,899550472,4.14E-03
5568,892692035.9,4.11E-03
5569,879147350.8,4.05E-03
5570,894166791.8,4.12E-03
5571,903670138.7,4.16E-03
5572,881315910.6,4.06E-03
5573,887302814.3,4.09E-03
5574,885748050.8,4.08E-03
5575,889039244.6,4.09E-03
5576,870598640.2,4.01E-03
5577,887302802.8,4.09E-03
5578,884988388.6,4.07E-03
5579,869513909.2,4.00E-03
5580,885748027.8,4.08E-03
5581,889039210.1,4.09E-03
5582,870598617.2,4.01E-03
5583,883430848.7,4.07E-03
5584,884732387.1,4.07E-03
5585,884430502.7,4.07E-03
5586,872435981.2,4.01E-03
5587,883430837.2,4.07E-03
5588,884362772.7,4.07E-03
5589,871849596.5,4.01E-03
5590,884732364.1,4.07E-03
5591,884430468.2,4.07E-03
5592,872435958.2,4.01E-03
5593,885684929.6,4.07E-03
5594,887787876.2,4.08E-03
5595,886012612.8,4.08E-03
5596,878690683,4.04E-03
5597,885684918.1,4.07E-03
5598,887700011.3,4.08E-03
5599,878516005.8,4.04E-03
5600,887787853.3,4.08E-03
5601,886012578.3,4.08E-03
5602,878690660,4.04E-03
5603,889802958,4.09E-03
5604,891409120.2,4.10E-03
5605,889762079.5,4.09E-03
5606,885706423.8,4.07E-03
5607,889802946.5,4.09E-03
5608,891472873,4.10E-03
5609,885705197.6,4.07E-03
5610,891409097.2,4.10E-03
5611,889762045,4.09E-03
5612,885706400.8,4.07E-03
5613,893079208.7,4.10E-03
5614,893083769,4.10E-03
5615,892821386.4,4.10E-03
5616,890083674.3,4.09E-03
5617,893079197.2,4.10E-03
5618,893212848,4.10E-03
5619,890169260.3,4.09E-03
5620,893083746,4.10E-03
5621,892821351.9,4.10E-03
5622,890083651.3,4.09E-03
5623,893195575,4.10E-03
5624,890904555.9,4.09E-03
5625,892894086.3,4.10E-03
5626,889113238.7,4.08E-03
5627,893195563.5,4.10E-03
5628,891011975.1,4.09E-03
5629,889220831.5,4.08E-03
5630,890904532.9,4.09E-03
5631,892894051.8,4.10E-03
5632,889113215.7,4.08E-03
5633,888719914.8,4.08E-03
5634,884304337.7,4.06E-03
5635,888526377.4,4.08E-03
5636,881405253.2,4.04E-03
5637,888719903.3,4.08E-03
5638,884325118.3,4.06E-03
5639,881447866.9,4.04E-03
5640,884304314.7,4.06E-03
5641,888526342.9,4.08E-03
5642,881405230.2,4.04E-03
5643,879907632.4,4.03E-03
5644,874903426.2,4.01E-03
5645,879995844.4,4.04E-03
5646,868145967.9,3.98E-03
5647,879907620.9,4.03E-03
5648,874794422.2,4.01E-03
5649,868101942.9,3.98E-03
5650,874903403.2,4.01E-03
5651,879995809.9,4.04E-03
5652,868145944.9,3.98E-03
5653,863643084.4,3.96E-03
5654,865019635,3.96E-03
5655,866814558.3,3.97E-03
5656,864186323.3,3.96E-03
5657,845624689.6,3.87E-03
5658,863643072.9,3.96E-03
5659,864780499.3,3.96E-03
5660,866618742,3.97E-03
5661,845450706.5,3.87E-03
5662,865019612,3.96E-03
5663,866814535.4,3.97E-03
5664,864186288.8,3.96E-03
5665,845624666.6,3.87E-03
5666,866177321.3,3.96E-03
5667,871776295.6,3.99E-03
5668,866720560.2,3.97E-03
5669,848582055.5,3.88E-03
5670,866177309.8,3.96E-03
5671,871558819.6,3.99E-03
5672,848386065.6,3.88E-03
5673,871776272.6,3.99E-03
5674,866720525.7,3.97E-03
5675,848582032.5,3.88E-03
5676,877157967.4,4.01E-03
5677,884621756.8,4.05E-03
5678,877549762,4.01E-03
5679,862737304.5,3.95E-03
5680,877157955.9,4.01E-03
5681,884534239,4.05E-03
5682,862606467.2,3.95E-03
5683,884621733.8,4.05E-03
5684,877549727.5,4.01E-03
5685,862737281.5,3.95E-03
5686,891999590.2,4.08E-03
5687,898536178,4.11E-03
5688,892066142.5,4.08E-03
5689,882704637.1,4.04E-03
5690,891999578.7,4.08E-03
5691,898578618.2,4.11E-03
5692,882682098.2,4.04E-03
5693,898536155,4.11E-03
5694,892066108,4.08E-03
5695,882704614.1,4.04E-03
5696,905138774.5,4.14E-03
5697,909210496.5,4.15E-03
5698,904901917.7,4.14E-03
5699,901556945.6,4.12E-03
5700,905138763,4.14E-03
5701,909339749,4.16E-03
5702,901642705.2,4.12E-03
5703,909210473.5,4.15E-03
5704,904901883.2,4.14E-03
5705,901556922.6,4.12E-03
5706,913413032.8,4.17E-03
5707,914737272,4.18E-03
5708,913002725,4.17E-03
5709,914550585.6,4.18E-03
5710,913413021.3,4.17E-03
5711,914931677.1,4.18E-03
5712,914701497.7,4.18E-03
5713,914737249,4.18E-03
5714,913002690.5,4.17E-03
5715,914550562.6,4.18E-03
5716,916256784,4.18E-03
5717,915286658.5,4.18E-03
5718,915802809.8,4.18E-03
5719,920187915.4,4.20E-03
5720,916256772.5,4.18E-03
5721,915481237.1,4.18E-03
5722,920382320.5,4.20E-03
5723,915286635.5,4.18E-03
5724,915802775.3,4.18E-03
5725,920187892.4,4.20E-03
5726,914532771.3,4.17E-03
5727,912068301.1,4.16E-03
5728,914165262.3,4.17E-03
5729,919396483.8,4.20E-03
5730,914532759.8,4.17E-03
5731,912197900.6,4.16E-03
5732,919547743.1,4.20E-03
5733,912068278.1,4.16E-03
5734,914165227.8,4.17E-03
5735,919396460.8,4.20E-03
5736,909732909.9,4.15E-03
5737,906465990.2,4.13E-03
5738,909516845.1,4.15E-03
5739,914099838,4.17E-03
5740,909732898.4,4.15E-03
5741,906530784.2,4.13E-03
5742,914207951.4,4.17E-03
5743,906465967.2,4.13E-03
5744,909516810.6,4.15E-03
5745,914099815,4.17E-03
5746,903262996.9,4.12E-03
5747,899840468.1,4.10E-03
5748,903198376.4,4.12E-03
5749,906331732.2,4.13E-03
5750,903262985.4,4.12E-03
5751,899861942.8,4.10E-03
5752,906353206.8,4.13E-03
5753,899840445.1,4.10E-03
5754,903198341.9,4.12E-03
5755,906331709.2,4.13E-03
5756,896438372.8,4.08E-03
5757,893210260.7,4.07E-03
5758,896482050.7,4.08E-03
5759,897842609.6,4.09E-03
5760,896438361.3,4.08E-03
5761,893166756.3,4.07E-03
5762,897820764.9,4.09E-03
5763,893210237.7,4.07E-03
5764,896482016.2,4.08E-03
5765,897842586.6,4.09E-03
5766,889959436.2,4.05E-03
5767,887337274.6,4.04E-03
5768,890089752.8,4.05E-03
5769,889913341.9,4.05E-03
5770,889959424.7,4.05E-03
5771,887272110.5,4.04E-03
5772,889848177.8,4.05E-03
5773,887337251.6,4.04E-03
5774,890089718.4,4.05E-03
5775,889913318.9,4.05E-03
5776,884670740.9,4.02E-03
5777,882869044.4,4.01E-03
5778,884822717.3,4.02E-03
5779,883714245.9,4.02E-03
5780,884670729.4,4.02E-03
5781,882803706.8,4.01E-03
5782,883670567.9,4.02E-03
5783,882869021.4,4.01E-03
5784,884822682.8,4.02E-03
5785,883714222.9,4.02E-03
5786,881001316.1,4.00E-03
5787,879971726,4.00E-03
5788,881045167.5,4.00E-03
5789,880391549.6,4.00E-03
5790,880848705.7,4.00E-03
5791,881001304.6,4.00E-03
5792,879971541,4.00E-03
5793,880369704.9,4.00E-03
5794,880848520.7,4.00E-03
5795,879971703,4.00E-03
5796,881045133,4.00E-03
5797,880391526.6,4.00E-03
5798,880848682.7,4.00E-03
5799,878921506,3.99E-03
5800,877458027.9,3.99E-03
5801,878857059,3.99E-03
5802,879070395.8,3.99E-03
5803,878921494.5,3.99E-03
5804,877479329,3.99E-03
5805,879113356.6,3.99E-03
5806,877458004.9,3.99E-03
5807,878857024.5,3.99E-03
5808,879070372.8,3.99E-03
5809,876016892.1,3.98E-03
5810,874253996.3,3.97E-03
5811,875952445.2,3.98E-03
5812,875907254.1,3.98E-03
5813,876016880.6,3.98E-03
5814,874275297.4,3.97E-03
5815,875950214.9,3.98E-03
5816,874253973.3,3.97E-03
5817,875952410.7,3.98E-03
5818,875907231.1,3.98E-03
5819,872512748.6,3.96E-03
5820,870642421.9,3.96E-03
5821,873687540.5,3.97E-03
5822,872470134.8,3.96E-03
5823,871926250.4,3.96E-03
5824,872512737.1,3.96E-03
5825,870641889.9,3.96E-03
5826,873687181.9,3.97E-03
5827,871947551.6,3.96E-03
5828,870642398.9,3.96E-03
5829,873687517.5,3.97E-03
5830,872470100.3,3.96E-03
5831,871926227.4,3.96E-03
5832,868749556.5,3.95E-03
5833,866965348,3.94E-03
5834,868793928.5,3.95E-03
5835,867642878.8,3.94E-03
5836,868749545,3.95E-03
5837,866943156.2,3.94E-03
5838,867642346.8,3.94E-03
5839,866965325,3.94E-03
5840,868793894,3.95E-03
5841,867642855.8,3.94E-03
5842,865157906.5,3.93E-03
5843,863674851.2,3.92E-03
5844,865245771.5,3.93E-03
5845,863574195.3,3.92E-03
5846,865157895,3.93E-03
5847,863630826.2,3.92E-03
5848,863530170.3,3.92E-03
5849,863674828.2,3.92E-03
5850,865245737,3.93E-03
5851,863574172.3,3.92E-03
5852,862146035.7,3.92E-03
5853,861158029.6,3.91E-03
5854,862277567,3.92E-03
5855,860215595.9,3.91E-03
5856,862146024.2,3.92E-03
5857,861114004.6,3.91E-03
5858,860149737.7,3.91E-03
5859,861158006.6,3.91E-03
5860,862277532.5,3.92E-03
5861,860215572.9,3.91E-03
5862,859413493.2,3.90E-03
5863,859802683.3,3.91E-03
5864,859802848.5,3.91E-03
5865,859588343.9,3.90E-03
5866,857222616.6,3.89E-03
5867,859413481.7,3.90E-03
5868,859736998.6,3.91E-03
5869,859736990.3,3.91E-03
5870,857113439.1,3.89E-03
5871,859802660.3,3.91E-03
5872,859802825.5,3.91E-03
5873,859588309.4,3.90E-03
5874,857222593.6,3.89E-03
5875,862146069.1,3.92E-03
5876,863674893,3.92E-03
5877,861158054.6,3.91E-03
5878,862277426.9,3.92E-03
5879,860215455.8,3.91E-03
5880,862146057.6,3.92E-03
5881,863630868,3.92E-03
5882,861114029.6,3.91E-03
5883,860149771.1,3.91E-03
5884,863674870,3.92E-03
5885,861158031.6,3.91E-03
5886,862277392.4,3.92E-03
5887,860215432.8,3.91E-03
5888,865157783.1,3.93E-03
5889,866965406.5,3.94E-03
5890,865245648.1,3.93E-03
5891,863574245.4,3.92E-03
5892,865157771.6,3.93E-03
5893,866943214.7,3.94E-03
5894,863530220.4,3.92E-03
5895,866965383.5,3.94E-03
5896,865245613.6,3.93E-03
5897,863574222.4,3.92E-03
5898,868771283,3.95E-03
5899,870642323.6,3.96E-03
5900,868793995.4,3.95E-03
5901,867642945.7,3.94E-03
5902,868771271.5,3.95E-03
5903,870620305.4,3.96E-03
5904,867642413.6,3.94E-03
5905,870642300.6,3.96E-03
5906,868793960.9,3.95E-03
5907,867642922.7,3.94E-03
5908,872512658.6,3.96E-03
5909,874213371.8,3.97E-03
5910,872470218.4,3.96E-03
5911,871926334,3.96E-03
5912,872512647.1,3.96E-03
5913,874234673,3.97E-03
5914,871947461.6,3.96E-03
5915,874213348.8,3.97E-03
5916,872470183.9,3.96E-03
5917,871926311,3.96E-03
5918,875935906.7,3.98E-03
5919,877418634.9,3.99E-03
5920,875871459.8,3.98E-03
5921,875866811.6,3.98E-03
5922,875935895.3,3.98E-03
5923,877440109.5,3.99E-03
5924,875909772.4,3.98E-03
5925,877418611.9,3.99E-03
5926,875871425.3,3.98E-03
5927,875866788.6,3.98E-03
5928,878923878.8,3.99E-03
5929,879952274,4.00E-03
5930,878837772.2,3.99E-03
5931,879049894.3,3.99E-03
5932,878923867.3,3.99E-03
5933,879952089,4.00E-03
5934,879114514.8,3.99E-03
5935,879952251,4.00E-03
5936,878837737.7,3.99E-03
5937,879049871.3,3.99E-03
5938,880981872.4,4.00E-03
5939,882848385.9,4.01E-03
5940,881025550.4,4.00E-03
5941,880828047.4,4.00E-03
5942,880392559.3,4.00E-03
5943,880981860.9,4.00E-03
5944,882804881.5,4.01E-03
5945,880849522.1,4.00E-03
5946,880370714.6,4.00E-03
5947,882848362.9,4.01E-03
5948,881025515.9,4.00E-03
5949,880828024.4,4.00E-03
5950,880392536.3,4.00E-03
5951,884670874.4,4.02E-03
5952,887337928.5,4.04E-03
5953,884822850.7,4.02E-03
5954,883714214.3,4.02E-03
5955,884670862.9,4.02E-03
5956,887272764.4,4.04E-03
5957,883670709.9,4.02E-03
5958,887337905.5,4.04E-03
5959,884822816.2,4.02E-03
5960,883714191.3,4.02E-03
5961,889960784.1,4.05E-03
5962,893190295.9,4.07E-03
5963,890091100.7,4.05E-03
5964,889892344.6,4.05E-03
5965,889960772.6,4.05E-03
5966,893146791.5,4.07E-03
5967,889848840.2,4.05E-03
5968,893190272.9,4.07E-03
5969,890091066.2,4.05E-03
5970,889892321.6,4.05E-03
5971,896397095.3,4.08E-03
5972,899819809,4.10E-03
5973,896462259.4,4.08E-03
5974,897821785.8,4.09E-03
5975,896397083.8,4.08E-03
5976,899841283.7,4.10E-03
5977,897799941.1,4.09E-03
5978,899819786,4.10E-03
5979,896462224.9,4.08E-03
5980,897821762.8,4.09E-03
5981,903262956.2,4.12E-03
5982,906465949.5,4.13E-03
5983,900953353.7,4.11E-03
5984,903198335.7,4.12E-03
5985,906331700.3,4.13E-03
5986,903262944.7,4.12E-03
5987,906530743.5,4.13E-03
5988,900974828.4,4.11E-03
5989,906353174.9,4.13E-03
5990,906465926.5,4.13E-03
5991,900953330.7,4.11E-03
5992,903198301.2,4.12E-03
5993,906331677.3,4.13E-03
5994,909732869.2,4.15E-03
5995,912068260.4,4.16E-03
5996,909516804.4,4.15E-03
5997,914121465.7,4.17E-03
5998,909732857.7,4.15E-03
5999,912197859.9,4.16E-03
6000,914207919.4,4.17E-03
6001,912068237.4,4.16E-03
6002,909516769.9,4.15E-03
6003,914121442.7,4.17E-03
6004,913456311.4,4.17E-03
6005,909232115.5,4.16E-03
6006,914758891,4.18E-03
6007,918513431,4.20E-03
6008,913024344,4.17E-03
6009,914593699.5,4.18E-03
6010,913456299.9,4.17E-03
6011,909383027.6,4.16E-03
6012,914953296.1,4.18E-03
6013,918577877.9,4.20E-03
6014,914744611.7,4.18E-03
6015,909232092.5,4.16E-03
6016,914758868,4.18E-03
6017,918513408,4.20E-03
6018,913024309.5,4.17E-03
6019,914593676.5,4.18E-03
6020,905181879.6,4.14E-03
6021,898600942.8,4.11E-03
6022,913700730.9,4.18E-03
6023,904945196.3,4.14E-03
6024,901621719.2,4.12E-03
6025,905181868.1,4.14E-03
6026,898621896.8,4.11E-03
6027,913700198.8,4.18E-03
6028,901707478.8,4.12E-03
6029,898600919.8,4.11E-03
6030,913700707.9,4.18E-03
6031,904945161.8,4.14E-03
6032,901621696.2,4.12E-03
6033,892042695.3,4.08E-03
6034,884686695.2,4.05E-03
6035,902461872.3,4.13E-03
6036,892131080.8,4.08E-03
6037,882791070.4,4.04E-03
6038,892042683.8,4.08E-03
6039,884577517.6,4.05E-03
6040,902418020.9,4.13E-03
6041,882746871.8,4.04E-03
6042,884686672.2,4.05E-03
6043,902461849.3,4.13E-03
6044,892131046.4,4.08E-03
6045,882791047.4,4.04E-03
6046,877222732.2,4.01E-03
6047,871819400.7,3.99E-03
6048,887288586.6,4.06E-03
6049,877614526.8,4.01E-03
6050,862823737.8,3.95E-03
6051,877222720.7,4.01E-03
6052,871601924.7,3.99E-03
6053,887244388.1,4.06E-03
6054,862692727,3.95E-03
6055,871819377.7,3.99E-03
6056,887288563.6,4.06E-03
6057,877614492.3,4.01E-03
6058,862823714.8,3.95E-03
6059,866198766.7,3.96E-03
6060,865041080.4,3.96E-03
6061,875109022.6,4.01E-03
6062,866742179.2,3.97E-03
6063,848624995.8,3.88E-03
6064,866198755.2,3.96E-03
6065,864801944.7,3.96E-03
6066,875086483.7,4.01E-03
6067,848450839.2,3.88E-03
6068,865041057.4,3.96E-03
6069,875108999.6,4.01E-03
6070,866742144.7,3.97E-03
6071,848624972.8,3.88E-03
6072,869722419.8,3.99E-03
6073,874838406.4,4.01E-03
6074,866792684.4,3.97E-03
6075,870113867.3,3.99E-03
6076,853901553.1,3.91E-03
6077,869722408.3,3.99E-03
6078,874729228.9,4.01E-03
6079,866596868.1,3.97E-03
6080,853770889.4,3.91E-03
6081,874838383.4,4.01E-03
6082,866792661.4,3.97E-03
6083,870113832.8,3.99E-03
6084,853901530.1,3.91E-03
6085,879842612.6,4.03E-03
6086,884239318,4.06E-03
6087,879930651.1,4.03E-03
6088,868080783.4,3.98E-03
6089,879842601.1,4.03E-03
6090,884260098.5,4.06E-03
6091,868036931.9,3.98E-03
6092,884239295,4.06E-03
6093,879930616.6,4.03E-03
6094,868080760.4,3.98E-03
6095,888654895,4.08E-03
6096,890839536.1,4.09E-03
6097,900326799.9,4.13E-03
6098,888461357.6,4.08E-03
6099,881318582.5,4.04E-03
6100,888654883.5,4.08E-03
6101,890946955.3,4.09E-03
6102,900282601.4,4.13E-03
6103,881361196.3,4.04E-03
6104,890839513.1,4.09E-03
6105,900326776.9,4.13E-03
6106,888461323.1,4.08E-03
6107,881318559.5,4.04E-03
6108,893036022.2,4.10E-03
6109,891365760.1,4.10E-03
6110,893040582.4,4.10E-03
6111,899824086.4,4.13E-03
6112,892778026.3,4.10E-03
6113,890018663.3,4.09E-03
6114,893036010.7,4.10E-03
6115,891429686.4,4.10E-03
6116,893147828.2,4.10E-03
6117,899823033.7,4.13E-03
6118,890104422.9,4.09E-03
6119,891365737.1,4.10E-03
6120,893040559.4,4.10E-03
6121,899824063.4,4.13E-03
6122,892777991.8,4.10E-03
6123,890018640.3,4.09E-03
6124,885663402.7,4.07E-03
6125,884710860.2,4.07E-03
6126,887744689.7,4.08E-03
6127,885969426.2,4.07E-03
6128,878647505.3,4.04E-03
6129,885663391.2,4.07E-03
6130,884341245.8,4.07E-03
6131,887678484.4,4.08E-03
6132,878472654.5,4.04E-03
6133,884710837.2,4.07E-03
6134,887744666.7,4.08E-03
6135,885969391.7,4.07E-03
6136,878647482.3,4.04E-03
6137,883366002.4,4.07E-03
6138,885534884,4.08E-03
6139,884387316.2,4.07E-03
6140,872414463.1,4.01E-03
6141,883365990.9,4.07E-03
6142,884775048.3,4.07E-03
6143,871828078.4,4.01E-03
6144,885534861,4.08E-03
6145,884387281.7,4.07E-03
6146,872414440.1,4.01E-03
6147,886941326.9,4.08E-03
6148,893782626.6,4.12E-03
6149,888656097.6,4.09E-03
6150,870363996.1,4.01E-03
6151,886941315.4,4.08E-03
6152,892307847.7,4.11E-03
6153,869279091.5,4.00E-03
6154,893782603.6,4.12E-03
6155,888656063.1,4.09E-03
6156,870363973.1,4.01E-03
6157,899143594.5,4.14E-03
6158,925377012.6,4.27E-03
6159,903306430,4.16E-03
6160,880950290.2,4.06E-03
6161,899143583,4.14E-03
6162,928861052,4.28E-03
6163,878781707.4,4.05E-03
6164,925376989.6,4.27E-03
6165,903306395.5,4.16E-03
6166,880950267.2,4.06E-03
6167,955082271,4.40E-03
6168,991940824.5,4.58E-03
6169,944567007.6,4.36E-03
6170,916417456.1,4.22E-03
6171,955082259.5,4.40E-03
6172,990024054,4.57E-03
6173,925075071.1,4.26E-03
6174,991940801.5,4.58E-03
6175,944566973.1,4.36E-03
6176,916417433.1,4.22E-03
6177,1026848176,4.74E-03
6178,970069909,4.48E-03
6179,997096507,4.60E-03
6180,1066071571,4.92E-03
6181,829719094.8,3.83E-03
6182,1026848164,4.74E-03
6183,955880829.3,4.41E-03
6184,1059640562,4.89E-03
6185,805232864.1,3.72E-03
6186,970069886,4.48E-03
6187,997096472.5,4.60E-03
6188,1066071548,4.92E-03
6189,829719071.8,3.83E-03
6190,899120054.3,4.15E-03
6191,878239218.2,4.05E-03
6192,874269235.1,4.03E-03
6193,743581756.8,3.43E-03
6194,899120042.8,4.15E-03
6195,863008495.4,3.98E-03
6196,716062042.3,3.30E-03
6197,878239195.2,4.05E-03
6198,874269200.6,4.03E-03
6199,743581733.8,3.43E-03
6200,842142204.3,3.89E-03
6201,832424591.1,3.84E-03
6202,817206221.4,3.77E-03
6203,693595521.8,3.20E-03
6204,842142192.8,3.89E-03
6205,817713006.7,3.77E-03
6206,666010030.1,3.07E-03
6207,832424568.1,3.84E-03
6208,817206186.9,3.77E-03
6209,693595498.8,3.20E-03
6210,807984374.3,3.73E-03
6211,803078716.2,3.71E-03
6212,783785827.2,3.62E-03
6213,665168012.7,3.07E-03
6214,807984362.8,3.73E-03
6215,788518246.3,3.64E-03
6216,637473858.2,2.94E-03
6217,803078693.2,3.71E-03
6218,783785792.7,3.62E-03
6219,665167989.7,3.07E-03
6220,783600180.7,3.62E-03
6221,782314813.4,3.61E-03
6222,760182059,3.51E-03
6223,644908338.8,2.98E-03
6224,783600169.2,3.62E-03
6225,767580788.3,3.54E-03
6226,616975719.5,2.85E-03
6227,782314790.4,3.61E-03
6228,760182024.5,3.51E-03
6229,644908315.8,2.98E-03
6230,766304031.2,3.54E-03
6231,767728328.2,3.54E-03
6232,743471102.7,3.43E-03
6233,630715892.7,2.91E-03
6234,766304019.7,3.54E-03
6235,752950827.6,3.47E-03
6236,602718172.9,2.78E-03
6237,767728305.2,3.54E-03
6238,743471068.2,3.43E-03
6239,630715869.7,2.91E-03
6240,754340103.1,3.48E-03
6241,758213679.7,3.50E-03
6242,731897239.8,3.38E-03
6243,621073802.3,2.87E-03
6244,754340091.6,3.48E-03
6245,743392790.3,3.43E-03
6246,593032693.7,2.74E-03
6247,758213656.7,3.50E-03
6248,731897205.3,3.38E-03
6249,621073779.3,2.87E-03
6250,747231223.9,3.45E-03
6251,753467267.9,3.48E-03
6252,725026721.3,3.35E-03
6253,615418586.1,2.84E-03
6254,747231212.4,3.45E-03
6255,738646326.4,3.41E-03
6256,587377460.1,2.71E-03
6257,753467244.9,3.48E-03
6258,725026686.8,3.35E-03
6259,615418563.1,2.84E-03
6260,744847175.3,3.44E-03
6261,753467259.5,3.48E-03
6262,752515189.1,3.47E-03
6263,722729328.7,3.33E-03
6264,613533525.8,2.83E-03
6265,744847163.8,3.44E-03
6266,738646318.1,3.41E-03
6267,750247612.1,3.46E-03
6268,585492399.8,2.70E-03
6269,753467236.5,3.48E-03
6270,752515166.1,3.47E-03
6271,722729294.2,3.33E-03
6272,613533502.8,2.83E-03
6273,747231207.2,3.45E-03
6274,758191994.9,3.50E-03
6275,755160056.9,3.48E-03
6276,725026704.5,3.35E-03
6277,615418569.4,2.84E-03
6278,747231195.7,3.45E-03
6279,743392765.3,3.43E-03
6280,752914157,3.47E-03
6281,587377443.4,2.71E-03
6282,758191971.9,3.50E-03
6283,755160033.9,3.48E-03
6284,725026670,3.35E-03
6285,615418546.4,2.84E-03
6286,754340069.7,3.48E-03
6287,767706626.7,3.54E-03
6288,731918866,3.38E-03
6289,621073768.8,2.87E-03
6290,754340058.2,3.48E-03
6291,752929108.8,3.47E-03
6292,593032660.2,2.74E-03
6293,767706603.7,3.54E-03
6294,731918831.5,3.38E-03
6295,621073745.8,2.87E-03
6296,766282304,3.54E-03
6297,782293112.5,3.61E-03
6298,743471052.5,3.43E-03
6299,630715842.5,2.91E-03
6300,766282292.5,3.54E-03
6301,767559070.2,3.54E-03
6302,602696463,2.78E-03
6303,782293089.5,3.61E-03
6304,743471018,3.43E-03
6305,630715819.6,2.91E-03
6306,783556811.9,3.62E-03
6307,802448132.7,3.70E-03
6308,794919188.3,3.67E-03
6309,760160315.1,3.51E-03
6310,644886612.3,2.98E-03
6311,783556800.4,3.62E-03
6312,787454417.1,3.63E-03
6313,792760291.6,3.66E-03
6314,616975652.7,2.85E-03
6315,802448109.7,3.70E-03
6316,794919165.3,3.67E-03
6317,760160280.6,3.51E-03
6318,644886589.3,2.98E-03
6319,806333174.3,3.72E-03
6320,830750924.9,3.83E-03
6321,820023965.3,3.78E-03
6322,782849622.3,3.61E-03
6323,664104314,3.07E-03
6324,806333162.8,3.72E-03
6325,815086244.9,3.76E-03
6326,817562110.7,3.77E-03
6327,636215343.7,2.94E-03
6328,830750901.9,3.83E-03
6329,820023942.3,3.78E-03
6330,782849587.8,3.61E-03
6331,664104291,3.07E-03
6332,839514462.5,3.87E-03
6333,877195974.2,4.05E-03
6334,854669224.2,3.94E-03
6335,815596883.9,3.76E-03
6336,692032887.4,3.19E-03
6337,839514451,3.87E-03
6338,861423759.4,3.97E-03
6339,851947852.4,3.93E-03
6340,664122621.9,3.07E-03
6341,877195951.2,4.05E-03
6342,854669201.2,3.94E-03
6343,815596849.4,3.76E-03
6344,692032864.4,3.19E-03
6345,899120180.4,4.15E-03
6346,969918964.3,4.48E-03
6347,874226059.2,4.03E-03
6348,743603403.7,3.43E-03
6349,899120168.9,4.15E-03
6350,955838200.4,4.41E-03
6351,716083689.2,3.31E-03
6352,969918941.3,4.48E-03
6353,874226024.7,4.03E-03
6354,743603380.7,3.43E-03
6355,1026675997,4.74E-03
6356,996729338.8,4.60E-03
6357,1065638808,4.92E-03
6358,829676370.7,3.83E-03
6359,1026675986,4.74E-03
6360,1059359400,4.89E-03
6361,805276726.7,3.72E-03
6362,996729304.3,4.60E-03
6363,1065638785,4.92E-03
6364,829676347.7,3.83E-03
6365,867100601.1,4.00E-03
6366,843947678.8,3.89E-03
6367,850935665.5,3.92E-03
6368,867100589.6,4.00E-03
6369,854400132.3,3.94E-03
6370,843947655.8,3.89E-03
6371,850935631,3.92E-03
6372,831250125.2,3.83E-03
6373,812480111.6,3.75E-03
6374,814912745,3.76E-03
6375,831250113.7,3.83E-03
6376,822888864,3.79E-03
6377,812480088.6,3.75E-03
6378,814912710.5,3.76E-03
6379,804119561.9,3.71E-03
6380,787847733.4,3.63E-03
6381,804119550.4,3.71E-03
6382,787847698.9,3.63E-03
6383,860123585.8,3.91E-03
6384,860298436.5,3.91E-03
6385,857997861.8,3.90E-03
6386,860123574.3,3.91E-03
6387,857888684.3,3.90E-03
6388,860298402,3.91E-03
6389,857997838.8,3.90E-03
6390,882830282.1,4.02E-03
6391,882852647.4,4.02E-03
6392,882830270.6,4.02E-03
6393,882852612.9,4.02E-03
6394,860123569.1,3.91E-03
6395,859759655.6,3.91E-03
6396,860298419.8,3.91E-03
6397,857997845.1,3.90E-03
6398,860123557.6,3.91E-03
6399,859715630.6,3.91E-03
6400,857888667.5,3.90E-03
6401,859759632.6,3.91E-03
6402,860298385.3,3.91E-03
6403,857997822.1,3.90E-03
6404,874883112.9,3.98E-03
6405,876382106,3.99E-03
6406,874883992.1,3.98E-03
6407,874883101.4,3.98E-03
6408,876381747.4,3.99E-03
6409,876382083,3.99E-03
6410,874883957.6,3.98E-03
6411,859351543.5,3.91E-03
6412,857320528.5,3.90E-03
6413,859482901.4,3.91E-03
6414,859351532,3.91E-03
6415,857298163.2,3.90E-03
6416,857320505.5,3.90E-03
6417,859482866.9,3.91E-03
6418,898667655.3,4.10E-03
6419,898668187.4,4.10E-03
6420,898667643.8,4.10E-03
6421,898668152.9,4.10E-03
6422,757889662.6,3.50E-03
6423,754214771.5,3.48E-03
6424,758385284.2,3.50E-03
6425,741705167,3.42E-03
6426,757889651.1,3.50E-03
6427,764514739.5,3.53E-03
6428,763556818,3.52E-03
6429,754214748.5,3.48E-03
6430,758385261.2,3.50E-03
6431,741705132.5,3.42E-03
6432,760838789.9,3.51E-03
6433,744675919.2,3.43E-03
6434,760838778.4,3.51E-03
6435,744675884.7,3.43E-03
6436,877880046.4,3.99E-03
6437,879683142.8,4.00E-03
6438,877880925.5,3.99E-03
6439,877880034.9,3.99E-03
6440,879682784.2,4.00E-03
6441,879683119.8,4.00E-03
6442,877880891,3.99E-03
6443,855245662,3.89E-03
6444,855225575.5,3.89E-03
6445,855245650.5,3.89E-03
6446,855225541,3.89E-03
6447,881241111.7,4.01E-03
6448,877340493.1,3.99E-03
6449,881263650.5,4.01E-03
6450,881241100.2,4.01E-03
6451,877339961,3.99E-03
6452,877340470.1,3.99E-03
6453,881263616,4.01E-03
6454,767631414.9,3.54E-03
6455,765832257.1,3.53E-03
6456,772861352,3.56E-03
6457,768179425.9,3.54E-03
6458,767631403.4,3.54E-03
6459,765871886.2,3.53E-03
6460,772879356,3.56E-03
6461,765832234.1,3.53E-03
6462,772861329,3.56E-03
6463,768179391.4,3.54E-03
6464,855499931.1,3.89E-03
6465,855393032.4,3.89E-03
6466,855499919.6,3.89E-03
6467,855392997.9,3.89E-03
6468,873439168.9,3.98E-03
6469,868905560.5,3.95E-03
6470,873440221.6,3.98E-03
6471,873439157.4,3.98E-03
6472,868926688.1,3.96E-03
6473,868905537.5,3.95E-03
6474,873440187.1,3.98E-03
6475,889759771.4,4.09E-03
6476,894919541.7,4.11E-03
6477,889740379.1,4.09E-03
6478,885663246,4.07E-03
6479,889759759.9,4.09E-03
6480,894831676.7,4.11E-03
6481,885661846.3,4.07E-03
6482,894919518.7,4.11E-03
6483,889740344.6,4.09E-03
6484,885663223,4.07E-03
6485,764051866.9,3.52E-03
6486,764556593.2,3.52E-03
6487,764051855.4,3.52E-03
6488,764556558.7,3.52E-03
6489,778088398.2,3.59E-03
6490,778722961.2,3.59E-03
6491,778088386.7,3.59E-03
6492,778722926.7,3.59E-03
6493,881506846.2,4.01E-03
6494,877686106.5,4.00E-03
6495,881529385.1,4.01E-03
6496,881506834.7,4.01E-03
6497,877685748,4.00E-03
6498,877686083.5,4.00E-03
6499,881529350.6,4.01E-03
6500,816119980.5,3.76E-03
6501,825706766,3.80E-03
6502,817035702.9,3.77E-03
6503,816119969,3.76E-03
6504,825466190,3.80E-03
6505,825706743,3.80E-03
6506,817035668.4,3.77E-03
6507,778110108.7,3.59E-03
6508,786665527.1,3.62E-03
6509,778744671.6,3.59E-03
6510,778110097.2,3.59E-03
6511,786598089.8,3.62E-03
6512,786665504.1,3.62E-03
6513,778744637.1,3.59E-03
6514,864392038.5,3.93E-03
6515,859878007.4,3.91E-03
6516,864371605,3.93E-03
6517,864392027,3.93E-03
6518,859920621.1,3.91E-03
6519,859877984.4,3.91E-03
6520,864371570.5,3.93E-03
6521,849350229.6,3.91E-03
6522,849894336.1,3.91E-03
6523,849350218.1,3.91E-03
6524,849894301.6,3.91E-03
6525,873864834.8,3.98E-03
6526,873887547.1,3.98E-03
6527,873864823.3,3.98E-03
6528,873887512.6,3.98E-03
6529,912825455.9,4.17E-03
6530,913635172.3,4.17E-03
6531,912761182.5,4.17E-03
6532,912825444.4,4.17E-03
6533,913721452.4,4.17E-03
6534,913635149.3,4.17E-03
6535,912761148,4.17E-03
6536,914532730.5,4.17E-03
6537,915308277.4,4.18E-03
6538,914186881.2,4.17E-03
6539,919417938.1,4.20E-03
6540,914532719,4.17E-03
6541,915502856,4.18E-03
6542,919569370.8,4.20E-03
6543,915308254.4,4.18E-03
6544,914186846.7,4.17E-03
6545,919417915.1,4.20E-03
6546,855404507.6,3.89E-03
6547,855319268.6,3.89E-03
6548,855404496.1,3.89E-03
6549,855319234.1,3.89E-03
6550,895006987,4.08E-03
6551,895159310.4,4.08E-03
6552,895006975.5,4.08E-03
6553,895159275.9,4.08E-03
6554,835053461.3,3.85E-03
6555,842820139,3.88E-03
6556,835425331.6,3.85E-03
6557,835053449.8,3.85E-03
6558,842515330.2,3.88E-03
6559,842820116,3.88E-03
6560,835425297.1,3.85E-03
6561,795154098.3,3.66E-03
6562,795092948.4,3.66E-03
6563,795154086.8,3.66E-03
6564,795092913.9,3.66E-03
6565,900013280.2,4.14E-03
6566,903377520.9,4.15E-03
6567,900362102.5,4.14E-03
6568,900013268.7,4.14E-03
6569,903224676.9,4.15E-03
6570,903377497.9,4.15E-03
6571,900362068,4.14E-03
6572,782846135.3,3.61E-03
6573,782655200.8,3.61E-03
6574,782846123.8,3.61E-03
6575,782655166.3,3.61E-03
6576,834459033.3,3.80E-03
6577,836539414.1,3.81E-03
6578,834070905.8,3.80E-03
6579,834459021.8,3.80E-03
6580,836733472.1,3.81E-03
6581,836539391.1,3.81E-03
6582,834070871.3,3.80E-03
6583,916256743.3,4.18E-03
6584,915824428.7,4.18E-03
6585,920209543.2,4.20E-03
6586,916256731.8,4.18E-03
6587,920403948.3,4.20E-03
6588,915824394.2,4.18E-03
6589,920209520.2,4.20E-03
6590,893152388.5,4.10E-03
6591,892829240,4.10E-03
6592,889026568.1,4.08E-03
6593,893152377,4.10E-03
6594,889134160.9,4.08E-03
6595,892829205.5,4.10E-03
6596,889026545.1,4.08E-03
6597,838809341.2,3.82E-03
6598,832201223.3,3.79E-03
6599,838464359.5,3.82E-03
6600,838809329.7,3.82E-03
6601,832416941,3.79E-03
6602,832201200.3,3.79E-03
6603,838464325,3.82E-03
6604,850282528.5,3.91E-03
6605,850848121.2,3.92E-03
6606,850282517,3.91E-03
6607,850848086.7,3.92E-03
6608,883364273.5,4.03E-03
6609,874265685.7,3.98E-03
6610,883473624.6,4.03E-03
6611,883364262,4.03E-03
6612,874243320.4,3.98E-03
6613,874265662.7,3.98E-03
6614,883473590.1,4.03E-03
6615,918649279.7,4.22E-03
6616,925679907.1,4.25E-03
6617,919344309.9,4.23E-03
6618,918649268.2,4.22E-03
6619,925267320.4,4.25E-03
6620,925679884.1,4.25E-03
6621,919344275.4,4.23E-03
6622,883566047.1,4.07E-03
6623,884174785.6,4.07E-03
6624,883566035.6,4.07E-03
6625,884174751.1,4.07E-03
6626,864405434,3.94E-03
6627,853879207.9,3.89E-03
6628,864341854.7,3.94E-03
6629,864405422.5,3.94E-03
6630,853965141,3.89E-03
6631,853879184.9,3.89E-03
6632,864341820.2,3.94E-03
6633,906611097.9,4.17E-03
6634,912728579.6,4.19E-03
6635,906873108,4.17E-03
6636,906611086.4,4.17E-03
6637,912489270.4,4.19E-03
6638,912728556.6,4.19E-03
6639,906873073.5,4.17E-03
6640,792795778.4,3.65E-03
6641,789973426.9,3.64E-03
6642,793875482.1,3.65E-03
6643,792754726.4,3.65E-03
6644,792795766.9,3.65E-03
6645,789993860.4,3.64E-03
6646,793961241.7,3.65E-03
6647,789973403.9,3.64E-03
6648,793875459.1,3.65E-03
6649,792754691.9,3.65E-03
6650,787176367.8,3.62E-03
6651,787048677.1,3.62E-03
6652,787176356.3,3.62E-03
6653,787048642.6,3.62E-03
6654,865144385.6,3.94E-03
6655,867532814,3.95E-03
6656,865102466,3.94E-03
6657,865144374.1,3.94E-03
6658,867532108.4,3.95E-03
6659,867532791,3.95E-03
6660,865102431.5,3.94E-03
6661,923656310.1,4.22E-03
6662,922980311.1,4.22E-03
6663,923765487.7,4.22E-03
6664,923656298.6,4.22E-03
6665,922893140.3,4.22E-03
6666,922980288.1,4.22E-03
6667,923765453.2,4.22E-03
6668,894340711.6,4.08E-03
6669,894688319.3,4.08E-03
6670,894340700.1,4.08E-03
6671,894688284.8,4.08E-03
6672,825993852.6,3.76E-03
6673,825410961.5,3.76E-03
6674,825993841.1,3.76E-03
6675,825410927,3.76E-03
6676,922217835.4,4.22E-03
6677,917580196.6,4.20E-03
6678,922435137.9,4.22E-03
6679,922217823.9,4.22E-03
6680,917471366.1,4.20E-03
6681,917580173.6,4.20E-03
6682,922435103.4,4.22E-03
6683,918627717.6,4.22E-03
6684,919322921.3,4.23E-03
6685,918627706.1,4.22E-03
6686,919322886.8,4.23E-03
6687,869765953.4,3.99E-03
6688,880998805,4.04E-03
6689,870135741.3,3.99E-03
6690,853945077.9,3.91E-03
6691,869765941.9,3.99E-03
6692,880932946.8,4.04E-03
6693,853814414.2,3.91E-03
6694,880998782,4.04E-03
6695,870135706.8,3.99E-03
6696,853945054.9,3.91E-03
6697,932299509.5,4.28E-03
6698,940281294.5,4.32E-03
6699,933189824,4.29E-03
6700,932299498,4.28E-03
6701,939651937.4,4.32E-03
6702,940281271.5,4.32E-03
6703,933189789.5,4.29E-03
6704,912835115.5,4.18E-03
6705,905082126.3,4.14E-03
6706,926002990.1,4.24E-03
6707,913009445.7,4.18E-03
6708,912835104,4.18E-03
6709,905059934.6,4.14E-03
6710,925851013.7,4.24E-03
6711,905082103.3,4.14E-03
6712,926002967.1,4.24E-03
6713,913009411.2,4.18E-03
6714,863664529.8,3.96E-03
6715,864207768.7,3.96E-03
6716,845646143.8,3.87E-03
6717,863664518.3,3.96E-03
6718,845450327.5,3.87E-03
6719,864207734.2,3.96E-03
6720,845646120.8,3.87E-03
6721,843436659.1,3.84E-03
6722,834507002.5,3.80E-03
6723,843113510.6,3.84E-03
6724,843436647.6,3.84E-03
6725,834744379.9,3.80E-03
6726,834506979.5,3.80E-03
6727,843113476.1,3.84E-03
6728,814702218.8,3.75E-03
6729,804918440.5,3.70E-03
6730,816961090.1,3.76E-03
6731,814552000.7,3.75E-03
6732,814702207.3,3.75E-03
6733,805047693,3.70E-03
6734,817047023.2,3.76E-03
6735,804918417.5,3.70E-03
6736,816961067.1,3.76E-03
6737,814551966.2,3.75E-03
6738,881918204.8,4.06E-03
6739,882547908.9,4.06E-03
6740,881918193.3,4.06E-03
6741,882547874.4,4.06E-03
6742,841252126.3,3.87E-03
6743,828309812,3.81E-03
6744,848280118.9,3.90E-03
6745,841427150.6,3.87E-03
6746,841252114.8,3.87E-03
6747,828265787,3.81E-03
6748,848149455.1,3.90E-03
6749,828309789,3.81E-03
6750,848280095.9,3.90E-03
6751,841427116.1,3.87E-03
6752,911955721.1,4.19E-03
6753,912260877,4.19E-03
6754,911955709.6,4.19E-03
6755,912260842.5,4.19E-03
6756,795040251.3,3.66E-03
6757,805127631.8,3.70E-03
6758,794586797.7,3.66E-03
6759,795040239.8,3.66E-03
6760,805256884.3,3.71E-03
6761,805127608.8,3.70E-03
6762,794586763.2,3.66E-03
6763,897308333.6,4.11E-03
6764,890598132.9,4.08E-03
6765,897201261.4,4.11E-03
6766,897308322.1,4.11E-03
6767,890727385.3,4.08E-03
6768,890598109.9,4.08E-03
6769,897201226.9,4.11E-03
6770,825810385,3.76E-03
6771,825227493.9,3.76E-03
6772,825810373.5,3.76E-03
6773,825227459.4,3.76E-03
6774,883753473.2,4.06E-03
6775,897118067.2,4.12E-03
6776,869584160.6,4.00E-03
6777,884405010.5,4.07E-03
6778,883753461.7,4.06E-03
6779,896662334.7,4.12E-03
6780,869345198.5,4.00E-03
6781,897118044.2,4.12E-03
6782,869584137.6,4.00E-03
6783,884404976,4.07E-03
6784,815327811,3.75E-03
6785,817151058.8,3.76E-03
6786,815199426.1,3.75E-03
6787,815327799.5,3.75E-03
6788,817237165.4,3.76E-03
6789,817151035.8,3.76E-03
6790,815199391.6,3.75E-03
6791,795290780.4,3.66E-03
6792,791970618.4,3.64E-03
6793,794858986.4,3.66E-03
6794,795290768.9,3.66E-03
6795,792273495.4,3.64E-03
6796,791970595.4,3.64E-03
6797,794858951.9,3.66E-03
6798,869920016.2,3.97E-03
6799,876869473,4.00E-03
6800,870029714.4,3.97E-03
6801,869920004.7,3.97E-03
6802,876695489.9,4.00E-03
6803,876869450,4.00E-03
6804,870029679.9,3.97E-03
6805,892167533.7,4.09E-03
6806,903317390.8,4.14E-03
6807,892061502.7,4.09E-03
6808,892167522.2,4.09E-03
6809,903489268.5,4.14E-03
6810,903317367.8,4.14E-03
6811,892061468.2,4.09E-03
6812,939020103,4.30E-03
6813,939518287.2,4.30E-03
6814,939020091.5,4.30E-03
6815,939518252.7,4.30E-03
6816,884017531.6,4.05E-03
6817,883607744.4,4.05E-03
6818,884017520.1,4.05E-03
6819,883607709.9,4.05E-03
6820,945364674.6,4.32E-03
6821,959523035,4.39E-03
6822,946209413.7,4.33E-03
6823,945364663.1,4.32E-03
6824,958808253.9,4.38E-03
6825,959523012,4.39E-03
6826,946209379.2,4.33E-03
6827,947630425.3,4.35E-03
6828,949235509.3,4.36E-03
6829,947630413.8,4.35E-03
6830,949235474.8,4.36E-03
6831,910029531.6,4.18E-03
6832,892904090.1,4.10E-03
6833,911222387.5,4.19E-03
6834,910029520.1,4.18E-03
6835,892405211.7,4.10E-03
6836,892904067.1,4.10E-03
6837,911222353,4.19E-03
6838,819059545.6,3.77E-03
6839,837138340,3.85E-03
6840,820008423.3,3.77E-03
6841,818800335,3.77E-03
6842,819059534.1,3.77E-03
6843,837116148.2,3.85E-03
6844,820159856.1,3.77E-03
6845,837138317,3.85E-03
6846,820008400.3,3.77E-03
6847,818800300.5,3.77E-03
6848,914617465.9,4.19E-03
6849,930236333.1,4.27E-03
6850,914100768.5,4.19E-03
6851,914617454.4,4.19E-03
6852,930624287,4.27E-03
6853,930236310.1,4.27E-03
6854,914100734,4.19E-03
6855,934254797.3,4.29E-03
6856,924135813.8,4.24E-03
6857,934799250.9,4.29E-03
6858,934254785.8,4.29E-03
6859,924155900.2,4.24E-03
6860,924135790.8,4.24E-03
6861,934799216.5,4.29E-03
6862,927701231.9,4.24E-03
6863,939912224.5,4.29E-03
6864,928481512.6,4.24E-03
6865,927701220.4,4.24E-03
6866,939370547.4,4.29E-03
6867,939912201.5,4.29E-03
6868,928481478.1,4.24E-03
6869,874467208.8,4.02E-03
6870,849071420.1,3.90E-03
6871,893629483.4,4.11E-03
6872,875247836.6,4.02E-03
6873,874467197.3,4.02E-03
6874,848962936.6,3.90E-03
6875,892849202.7,4.10E-03
6876,849071397.1,3.90E-03
6877,893629460.4,4.11E-03
6878,875247802.1,4.02E-03
6879,855199801.5,3.93E-03
6880,865369663,3.98E-03
6881,855525749.5,3.93E-03
6882,855199790,3.93E-03
6883,865087555,3.98E-03
6884,865369640,3.98E-03
6885,855525715,3.93E-03
6886,819305373.9,3.77E-03
6887,803984493.5,3.70E-03
6888,821384720.4,3.78E-03
6889,819067823,3.77E-03
6890,819305362.4,3.77E-03
6891,804265710.8,3.70E-03
6892,821514493.4,3.78E-03
6893,803984470.5,3.70E-03
6894,821384697.4,3.78E-03
6895,819067788.5,3.77E-03
6896,951600423.2,4.35E-03
6897,962699136.5,4.40E-03
6898,951608967.9,4.35E-03
6899,952986828,4.36E-03
6900,951600411.7,4.35E-03
6901,961854570.9,4.40E-03
6902,950742569,4.34E-03
6903,962699113.5,4.40E-03
6904,951608944.9,4.35E-03
6905,952986793.5,4.36E-03
6906,972972687.9,4.45E-03
6907,984830988.9,4.50E-03
6908,974943036.5,4.46E-03
6909,972972676.4,4.45E-03
6910,983315320.1,4.50E-03
6911,984830965.9,4.50E-03
6912,974943002.1,4.46E-03
6913,788951771.7,3.63E-03
6914,782571166.4,3.60E-03
6915,781638418.5,3.59E-03
6916,788128888.7,3.62E-03
6917,788951760.2,3.63E-03
6918,783069327.7,3.60E-03
6919,782245051.7,3.60E-03
6920,782571143.4,3.60E-03
6921,781638395.5,3.59E-03
6922,788128854.2,3.62E-03
6923,831620285.9,3.79E-03
6924,810081634.6,3.69E-03
6925,828340329,3.78E-03
6926,831124380.6,3.79E-03
6927,831620274.4,3.79E-03
6928,810621900.5,3.69E-03
6929,828512206.7,3.78E-03
6930,810081611.6,3.69E-03
6931,828340306,3.78E-03
6932,831124346.1,3.79E-03
6933,973832387.5,4.45E-03
6934,986508021,4.51E-03
6935,975867715.2,4.46E-03
6936,973832376,4.45E-03
6937,984970692.5,4.51E-03
6938,986507998,4.51E-03
6939,975867680.7,4.46E-03
6940,875258978.2,4.02E-03
6941,894093927.9,4.11E-03
6942,848234887.4,3.90E-03
6943,876061265.6,4.03E-03
6944,875258966.7,4.02E-03
6945,893313820.7,4.11E-03
6946,848126404,3.90E-03
6947,894093904.9,4.11E-03
6948,848234864.4,3.90E-03
6949,876061231.1,4.03E-03
6950,776697051.9,3.57E-03
6951,763594663,3.51E-03
6952,775592593,3.57E-03
6953,776697040.4,3.57E-03
6954,764439552.7,3.51E-03
6955,763594640,3.51E-03
6956,775592558.5,3.57E-03
6957,774929442.6,3.56E-03
6958,799029621.8,3.67E-03
6959,762648553.2,3.50E-03
6960,761931534.6,3.50E-03
6961,773369089.2,3.55E-03
6962,774929431.1,3.56E-03
6963,799484810.7,3.67E-03
6964,763623748.1,3.51E-03
6965,762993715.3,3.50E-03
6966,799029598.8,3.67E-03
6967,762648530.2,3.50E-03
6968,761931511.6,3.50E-03
6969,773369054.7,3.55E-03
6970,883643558.4,4.03E-03
6971,854654818.2,3.90E-03
6972,899190347.9,4.11E-03
6973,884294748.6,4.04E-03
6974,883643546.9,4.03E-03
6975,854653939,3.90E-03
6976,898496532.4,4.10E-03
6977,854654795.2,3.90E-03
6978,899190324.9,4.11E-03
6979,884294714.2,4.04E-03
6980,789054995.3,3.59E-03
6981,776338191.3,3.54E-03
6982,754440588.5,3.44E-03
6983,787476799.9,3.59E-03
6984,789054983.8,3.59E-03
6985,777376109.4,3.54E-03
6986,755911526.7,3.44E-03
6987,776338168.3,3.54E-03
6988,754440565.5,3.44E-03
6989,787476765.4,3.59E-03
6990,825641630.3,3.76E-03
6991,827697245,3.77E-03
6992,824994107.2,3.76E-03
6993,825641618.8,3.76E-03
6994,827847636.6,3.78E-03
6995,827697222,3.77E-03
6996,824994072.7,3.76E-03
6997,894252545,4.10E-03
6998,903864201.9,4.14E-03
6999,899607662.8,4.12E-03
7000,892565530.6,4.09E-03
7001,894252533.5,4.10E-03
7002,904425953.9,4.14E-03
7003,901078948,4.13E-03
7004,903864178.9,4.14E-03
7005,899607639.8,4.12E-03
7006,892565496.1,4.09E-03
7007,914033272.5,4.19E-03
7008,913473255.7,4.19E-03
7009,914033261,4.19E-03
7010,913473221.2,4.19E-03
7011,997657952.5,4.56E-03
7012,1016257132,4.65E-03
7013,1001902047,4.58E-03
7014,997657941,4.56E-03
7015,1013810791,4.64E-03
7016,1016257109,4.65E-03
7017,1001902013,4.58E-03
7018,764648720.1,3.48E-03
7019,742133056.9,3.38E-03
7020,762225970.5,3.47E-03
7021,764648708.6,3.48E-03
7022,743798932.2,3.39E-03
7023,742133033.9,3.38E-03
7024,762225936,3.47E-03
7025,970571036.1,4.46E-03
7026,972718479.8,4.47E-03
7027,970571024.6,4.46E-03
7028,972718445.3,4.47E-03
7029,823593319.3,3.79E-03
7030,823333241.1,3.78E-03
7031,823593307.8,3.79E-03
7032,823333206.6,3.78E-03
7033,993320384.1,4.56E-03
7034,987778858.6,4.54E-03
7035,1014257081,4.66E-03
7036,997504185.2,4.58E-03
7037,993320372.6,4.56E-03
7038,985134803.9,4.53E-03
7039,1011742290,4.65E-03
7040,987778835.6,4.54E-03
7041,1014257058,4.66E-03
7042,997504150.8,4.58E-03
7043,950758575.5,4.34E-03
7044,932937240.7,4.26E-03
7045,973753835,4.45E-03
7046,952924555.4,4.35E-03
7047,950758564,4.34E-03
7048,931854071.4,4.26E-03
7049,972194673.3,4.45E-03
7050,932937217.7,4.26E-03
7051,973753812,4.45E-03
7052,952924520.9,4.35E-03
7053,914097413.6,4.18E-03
7054,869916613.5,3.97E-03
7055,916242601.5,4.19E-03
7056,914097402.1,4.18E-03
7057,869417561.7,3.97E-03
7058,869916590.5,3.97E-03
7059,916242567,4.19E-03
7060,912015642,4.19E-03
7061,946888996.1,4.35E-03
7062,914312621.2,4.20E-03
7063,912015630.5,4.19E-03
7064,944722322.1,4.34E-03
7065,946888973.1,4.35E-03
7066,914312586.7,4.20E-03
7067,825235373.3,3.76E-03
7068,772718544.8,3.52E-03
7069,838053594.6,3.82E-03
7070,825086543.5,3.76E-03
7071,825235361.8,3.76E-03
7072,773821268.3,3.53E-03
7073,836882571.9,3.82E-03
7074,772718521.8,3.52E-03
7075,838053571.6,3.82E-03
7076,825086509,3.76E-03
7077,912130754.8,4.19E-03
7078,946001689.8,4.35E-03
7079,869429880,3.99E-03
7080,914536032.4,4.20E-03
7081,912130743.3,4.19E-03
7082,943748377.1,4.34E-03
7083,868779904.5,3.99E-03
7084,946001666.8,4.35E-03
7085,869429857,3.99E-03
7086,914535997.9,4.20E-03
7087,821107519.1,3.77E-03
7088,823595622.8,3.78E-03
7089,820825954.7,3.77E-03
7090,821107507.6,3.77E-03
7091,823595784.8,3.78E-03
7092,823595599.8,3.78E-03
7093,820825920.2,3.77E-03
7094,946262905,4.34E-03
7095,926266063.8,4.25E-03
7096,982471835,4.51E-03
7097,945271429.9,4.33E-03
7098,946262893.5,4.34E-03
7099,927563377.5,4.25E-03
7100,982381887.7,4.51E-03
7101,926266040.8,4.25E-03
7102,982471812,4.51E-03
7103,945271395.4,4.33E-03
7104,751333346.1,3.45E-03
7105,725291275.8,3.33E-03
7106,749101195.4,3.44E-03
7107,751333334.6,3.45E-03
7108,727068399.5,3.34E-03
7109,725291252.8,3.33E-03
7110,749101160.9,3.44E-03
7111,979582346,4.50E-03
7112,933191665.7,4.29E-03
7113,1026817685,4.72E-03
7114,985931247.9,4.53E-03
7115,979582334.5,4.50E-03
7116,930201923.7,4.27E-03
7117,1022072120,4.70E-03
7118,933191642.7,4.29E-03
7119,1026817662,4.72E-03
7120,985931213.4,4.53E-03
7121,947624598.5,4.34E-03
7122,927080595.7,4.24E-03
7123,978427273.6,4.48E-03
7124,946995264.4,4.34E-03
7125,947624587,4.34E-03
7126,928293700,4.25E-03
7127,978363497.7,4.48E-03
7128,927080572.7,4.24E-03
7129,978427250.6,4.48E-03
7130,946995229.9,4.34E-03
7131,723722788.5,3.30E-03
7132,776291473.7,3.54E-03
7133,721457588,3.28E-03
7134,687240856.6,3.13E-03
7135,719352402.7,3.27E-03
7136,723722777,3.30E-03
7137,777329044.7,3.54E-03
7138,723556136.5,3.29E-03
7139,689295738.6,3.14E-03
7140,776291450.8,3.54E-03
7141,721457565,3.28E-03
7142,687240833.6,3.13E-03
7143,719352368.2,3.27E-03
7144,829881591.6,3.79E-03
7145,872232254.2,3.98E-03
7146,844935793.3,3.86E-03
7147,829927699,3.79E-03
7148,829881580.1,3.79E-03
7149,871689882.9,3.98E-03
7150,843678131.9,3.85E-03
7151,872232231.2,3.98E-03
7152,844935770.3,3.86E-03
7153,829927664.5,3.79E-03
7154,907774133.4,4.16E-03
7155,906056040.1,4.15E-03
7156,903638186.5,4.14E-03
7157,907774121.9,4.16E-03
7158,908134143.5,4.16E-03
7159,906056017.1,4.15E-03
7160,903638152,4.14E-03
7161,907559768.6,4.16E-03
7162,906279150.9,4.15E-03
7163,914342069.2,4.19E-03
7164,903469743.9,4.14E-03
7165,907559757.1,4.16E-03
7166,908335768.2,4.16E-03
7167,918195225.6,4.21E-03
7168,906279127.9,4.15E-03
7169,914342046.2,4.19E-03
7170,903469709.5,4.14E-03
7171,907072819.1,4.15E-03
7172,926442351.6,4.24E-03
7173,903023337.3,4.13E-03
7174,907072807.6,4.15E-03
7175,927611963,4.25E-03
7176,926442328.6,4.24E-03
7177,903023302.8,4.13E-03
7178,1032684888,4.74E-03
7179,1053320549,4.84E-03
7180,1026543227,4.71E-03
7181,1038733851,4.77E-03
7182,1032684876,4.74E-03
7183,1048703901,4.82E-03
7184,1024741470,4.70E-03
7185,1053320526,4.84E-03
7186,1026543204,4.71E-03
7187,1038733816,4.77E-03
7188,749991642.5,3.44E-03
7189,724554127.7,3.33E-03
7190,734315537.2,3.37E-03
7191,747281764.1,3.43E-03
7192,749991631.1,3.44E-03
7193,726418410.8,3.34E-03
7194,735118669.3,3.37E-03
7195,724554104.7,3.33E-03
7196,734315514.2,3.37E-03
7197,747281729.6,3.43E-03
7198,977605287.7,4.49E-03
7199,1029588262,4.73E-03
7200,924868485.6,4.25E-03
7201,984192099,4.52E-03
7202,977605276.2,4.49E-03
7203,1024561122,4.71E-03
7204,921727299.3,4.23E-03
7205,1029588239,4.73E-03
7206,924868462.6,4.25E-03
7207,984192064.5,4.52E-03
7208,914040198.4,4.17E-03
7209,948464861.6,4.33E-03
7210,916120407.2,4.18E-03
7211,914040186.9,4.17E-03
7212,946342027.6,4.33E-03
7213,948464838.6,4.33E-03
7214,916120372.7,4.18E-03
7215,721284830.9,3.28E-03
7216,683169051.4,3.11E-03
7217,716784486.9,3.26E-03
7218,721284819.4,3.28E-03
7219,685461842.8,3.12E-03
7220,683169028.4,3.11E-03
7221,716784452.4,3.26E-03
7222,947005931.6,4.34E-03
7223,976501951.7,4.47E-03
7224,946355111.4,4.33E-03
7225,947005920.1,4.34E-03
7226,976351537.1,4.47E-03
7227,976501928.7,4.47E-03
7228,946355076.9,4.33E-03
7229,906412753.1,4.15E-03
7230,917312056,4.20E-03
7231,902214256.5,4.13E-03
7232,906412741.6,4.15E-03
7233,920753851.9,4.22E-03
7234,917312033,4.20E-03
7235,902214222,4.13E-03
7236,1032406847,4.73E-03
7237,1061765501,4.86E-03
7238,1021633065,4.68E-03
7239,1038143204,4.75E-03
7240,1032406835,4.73E-03
7241,1056786192,4.84E-03
7242,1019945854,4.67E-03
7243,1061765478,4.86E-03
7244,1021633042,4.68E-03
7245,1038143169,4.75E-03
7246,826082326.7,3.79E-03
7247,780814014.4,3.59E-03
7248,848312609,3.90E-03
7249,826189595.5,3.80E-03
7250,826082315.2,3.79E-03
7251,781551473.3,3.59E-03
7252,846753620.8,3.89E-03
7253,780813991.4,3.59E-03
7254,848312586,3.90E-03
7255,826189561,3.80E-03
7256,700997901.9,3.22E-03
7257,717651811.2,3.29E-03
7258,656496542.3,3.01E-03
7259,695969569.6,3.19E-03
7260,700997890.4,3.22E-03
7261,719646226,3.30E-03
7262,659358038.6,3.02E-03
7263,717651788.2,3.29E-03
7264,656496519.3,3.01E-03
7265,695969535.1,3.19E-03
7266,995185074,4.55E-03
7267,1012425941,4.63E-03
7268,989263582.4,4.52E-03
7269,999234058.2,4.57E-03
7270,995185062.5,4.55E-03
7271,1010109558,4.62E-03
7272,986665102.9,4.51E-03
7273,1012425918,4.63E-03
7274,989263559.4,4.52E-03
7275,999234023.7,4.57E-03
7276,1027326161,4.70E-03
7277,1017400752,4.66E-03
7278,1052112028,4.82E-03
7279,1032651158,4.73E-03
7280,1027326150,4.70E-03
7281,1015800006,4.65E-03
7282,1047652378,4.80E-03
7283,1017400729,4.66E-03
7284,1052112005,4.82E-03
7285,1032651124,4.73E-03
7286,883786286.7,4.06E-03
7287,802242806.4,3.68E-03
7288,942759028,4.33E-03
7289,889092400.2,4.08E-03
7290,883786275.2,4.06E-03
7291,800987748,3.68E-03
7292,936628978.9,4.30E-03
7293,802242783.4,3.68E-03
7294,942759005,4.33E-03
7295,889092365.7,4.08E-03
7296,1029773876,4.73E-03
7297,1055529370,4.85E-03
7298,1016372890,4.67E-03
7299,1035432791,4.75E-03
7300,1029773864,4.73E-03
7301,1050825910,4.83E-03
7302,1014853230,4.66E-03
7303,1055529347,4.85E-03
7304,1016372867,4.67E-03
7305,1035432757,4.75E-03
7306,1076579465,4.95E-03
7307,1106859326,5.08E-03
7308,1091249850,5.01E-03
7309,1076579453,4.95E-03
7310,1101071146,5.06E-03
7311,1106859303,5.08E-03
7312,1091249816,5.01E-03
7313,1005856928,4.61E-03
7314,1062734464,4.87E-03
7315,1007174015,4.61E-03
7316,1005856916,4.61E-03
7317,1060008630,4.86E-03
7318,1062734441,4.87E-03
7319,1007173981,4.61E-03
7320,1069319606,4.91E-03
7321,1036429960,4.76E-03
7322,1083253389,4.98E-03
7323,1069319595,4.91E-03
7324,1028521387,4.72E-03
7325,1036429937,4.76E-03
7326,1083253354,4.98E-03
7327,980759055.5,4.49E-03
7328,921159897.8,4.21E-03
7329,1028976567,4.71E-03
7330,987321257.1,4.52E-03
7331,980759044,4.49E-03
7332,918322120.6,4.20E-03
7333,1024234300,4.69E-03
7334,921159874.8,4.21E-03
7335,1028976544,4.71E-03
7336,987321222.6,4.52E-03
7337,1001448253,4.59E-03
7338,965430913.6,4.43E-03
7339,1067733560,4.90E-03
7340,1002127871,4.60E-03
7341,1001448242,4.59E-03
7342,967658205.4,4.44E-03
7343,1065107521,4.89E-03
7344,965430890.6,4.43E-03
7345,1067733537,4.90E-03
7346,1002127836,4.60E-03
7347,1086172264,4.97E-03
7348,1037373881,4.75E-03
7349,1102130083,5.05E-03
7350,1086172253,4.97E-03
7351,1028040802,4.71E-03
7352,1037373858,4.75E-03
7353,1102130049,5.05E-03
7354,931651766.5,4.27E-03
7355,962670172.1,4.41E-03
7356,922235889,4.23E-03
7357,931651755,4.27E-03
7358,969944170.3,4.45E-03
7359,962670149.1,4.41E-03
7360,922235854.5,4.23E-03
7361,1009176238,4.62E-03
7362,1010038125,4.63E-03
7363,1009176226,4.62E-03
7364,1010038090,4.63E-03
7365,849700099.1,3.88E-03
7366,748532733.7,3.41E-03
7367,917971417.7,4.20E-03
7368,853666782.8,3.90E-03
7369,849700087.6,3.88E-03
7370,748573438.6,3.41E-03
7371,911039613.2,4.16E-03
7372,748532710.7,3.41E-03
7373,917971394.7,4.20E-03
7374,853666748.3,3.90E-03
7375,647356301.6,2.94E-03
7376,648978381,2.95E-03
7377,589623680.7,2.68E-03
7378,640151273.7,2.91E-03
7379,647356290.1,2.94E-03
7380,651248645.2,2.96E-03
7381,589684483.5,2.68E-03
7382,648978358,2.95E-03
7383,589623657.7,2.68E-03
7384,640151239.2,2.91E-03
7385,652823177.3,2.97E-03
7386,755909296.9,3.45E-03
7387,641222527,2.92E-03
7388,646115975,2.94E-03
7389,652823165.8,2.97E-03
7390,755668599.4,3.44E-03
7391,639377624.7,2.91E-03
7392,755909273.9,3.45E-03
7393,641222504,2.92E-03
7394,646115940.5,2.94E-03
7395,858708418.1,3.92E-03
7396,935215449.6,4.28E-03
7397,862912837.7,3.94E-03
7398,858708406.6,3.92E-03
7399,929085226.9,4.25E-03
7400,935215426.6,4.28E-03
7401,862912803.2,3.94E-03
7402,1116912543,5.12E-03
7403,1097492215,5.03E-03
7404,1079976987,4.95E-03
7405,1152822559,5.28E-03
7406,1130288348,5.18E-03
7407,1116912531,5.12E-03
7408,1091864330,5.00E-03
7409,1080479660,4.95E-03
7410,1144835850,5.25E-03
7411,1097492192,5.03E-03
7412,1079976964,4.95E-03
7413,1152822536,5.28E-03
7414,1130288313,5.18E-03
7415,924978740.9,4.24E-03
7416,970578350.1,4.45E-03
7417,945827438.3,4.33E-03
7418,913894373.6,4.19E-03
7419,924978729.4,4.24E-03
7420,973021891.7,4.46E-03
7421,955983042.1,4.38E-03
7422,970578327.1,4.45E-03
7423,945827415.3,4.33E-03
7424,913894339.1,4.19E-03
7425,1018601545,4.67E-03
7426,1044362880,4.79E-03
7427,1020885541,4.68E-03
7428,1018601533,4.67E-03
7429,1050139757,4.82E-03
7430,1044362857,4.79E-03
7431,1020885506,4.68E-03
7432,736297043.4,3.38E-03
7433,689187215.9,3.16E-03
7434,733045325.8,3.37E-03
7435,736297031.9,3.38E-03
7436,690662318.8,3.17E-03
7437,689187192.9,3.16E-03
7438,733045291.3,3.37E-03
7439,1072441226,4.91E-03
7440,1043020634,4.77E-03
7441,1085952021,4.97E-03
7442,1072441214,4.91E-03
7443,1034965303,4.74E-03
7444,1043020611,4.77E-03
7445,1085951987,4.97E-03
7446,868986853.1,3.99E-03
7447,756661169.2,3.47E-03
7448,874465550,4.02E-03
7449,868986841.6,3.99E-03
7450,755861658.2,3.47E-03
7451,756661146.2,3.47E-03
7452,874465515.5,4.02E-03
7453,719437011,3.30E-03
7454,666230534.1,3.06E-03
7455,717049598.4,3.29E-03
7456,719436999.5,3.30E-03
7457,668052712.5,3.06E-03
7458,666230511.1,3.06E-03
7459,717049563.9,3.29E-03
7460,979300867.1,4.48E-03
7461,759111300.3,3.46E-03
7462,1100364725,5.04E-03
7463,1004987876,4.60E-03
7464,979300855.6,4.48E-03
7465,752199767.2,3.43E-03
7466,1088802433,4.99E-03
7467,759111277.3,3.46E-03
7468,1100364702,5.04E-03
7469,1004987841,4.60E-03
7470,995613693.8,4.57E-03
7471,1091571490,5.01E-03
7472,1015521905,4.66E-03
7473,995613682.3,4.57E-03
7474,1080304799,4.96E-03
7475,1091571467,5.01E-03
7476,1015521870,4.66E-03
7477,1131362981,5.20E-03
7478,1064952374,4.89E-03
7479,1173958549,5.39E-03
7480,1145759079,5.26E-03
7481,1131362970,5.20E-03
7482,1067393313,4.90E-03
7483,1170766234,5.38E-03
7484,1064952351,4.89E-03
7485,1173958526,5.39E-03
7486,1145759044,5.26E-03
7487,643556971.5,2.95E-03
7488,628014388.9,2.88E-03
7489,704154647.9,3.23E-03
7490,637593628.7,2.92E-03
7491,643556960,2.95E-03
7492,630357093.8,2.89E-03
7493,699500927.9,3.21E-03
7494,628014365.9,2.88E-03
7495,704154624.9,3.23E-03
7496,637593594.2,2.92E-03
7497,614847308.4,2.82E-03
7498,574371461.4,2.63E-03
7499,605331777.4,2.77E-03
7500,614847296.9,2.82E-03
7501,575501744.7,2.64E-03
7502,574371438.4,2.63E-03
7503,605331742.9,2.77E-03
7504,1016843782,4.66E-03
7505,1003694031,4.60E-03
7506,1147003735,5.26E-03
7507,994659939.1,4.56E-03
7508,1016843771,4.66E-03
7509,1014110419,4.65E-03
7510,1157510926,5.31E-03
7511,1003694008,4.60E-03
7512,1147003712,5.26E-03
7513,994659904.6,4.56E-03
7514,531947382.4,2.41E-03
7515,581939179.2,2.64E-03
7516,482982170.9,2.19E-03
7517,528665707.3,2.40E-03
7518,531947370.9,2.41E-03
7519,577905607.6,2.62E-03
7520,478537412.4,2.17E-03
7521,581939156.2,2.64E-03
7522,482982147.9,2.19E-03
7523,528665672.8,2.40E-03
7524,627781833.3,2.86E-03
7525,820566824.8,3.75E-03
7526,845434406.5,3.86E-03
7527,633984843.9,2.88E-03
7528,627781821.8,2.86E-03
7529,812833091.3,3.71E-03
7530,836921792.1,3.82E-03
7531,820566801.8,3.75E-03
7532,845434383.5,3.86E-03
7533,633984809.4,2.88E-03
7534,1005574732,4.60E-03
7535,1098400260,5.03E-03
7536,1028488954,4.71E-03
7537,1005574720,4.60E-03
7538,1087985585,4.98E-03
7539,1098400237,5.03E-03
7540,1028488919,4.71E-03
7541,1000957717,4.59E-03
7542,1053719323,4.83E-03
7543,979135178.9,4.49E-03
7544,1000957706,4.59E-03
7545,1064998280,4.89E-03
7546,1053719300,4.83E-03
7547,979135144.4,4.49E-03
7548,629473004.8,2.86E-03
7549,530267935.8,2.41E-03
7550,592070899.3,2.69E-03
7551,677017306.9,3.08E-03
7552,665044291,3.03E-03
7553,629472993.3,2.86E-03
7554,529290288.5,2.40E-03
7555,592328548.1,2.69E-03
7556,678251029.7,3.09E-03
7557,530267912.8,2.41E-03
7558,592070876.3,2.69E-03
7559,677017283.9,3.08E-03
7560,665044256.6,3.03E-03
7561,1043553996,4.78E-03
7562,1005040125,4.61E-03
7563,1143723546,5.25E-03
7564,1030897464,4.72E-03
7565,1043553985,4.78E-03
7566,1015350643,4.65E-03
7567,1149512223,5.27E-03
7568,1005040102,4.61E-03
7569,1143723523,5.25E-03
7570,1030897429,4.72E-03
7571,1075904042,4.94E-03
7572,1019636436,4.68E-03
7573,1269238379,5.83E-03
7574,1052072706,4.83E-03
7575,1075904030,4.94E-03
7576,1033125722,4.74E-03
7577,1274777173,5.85E-03
7578,1019636413,4.68E-03
7579,1269238356,5.83E-03
7580,1052072671,4.83E-03
7581,1213347919,5.57E-03
7582,1162716159,5.34E-03
7583,1255854007,5.77E-03
7584,1229831329,5.65E-03
7585,1213347908,5.57E-03
7586,1168382308,5.36E-03
7587,1256970235,5.77E-03
7588,1162716136,5.34E-03
7589,1255853984,5.77E-03
7590,1229831294,5.65E-03
7591,760119601.4,3.49E-03
7592,602192193.7,2.76E-03
7593,793415251.9,3.64E-03
7594,778785228.2,3.57E-03
7595,760119589.9,3.49E-03
7596,593293175.6,2.72E-03
7597,788347394.9,3.62E-03
7598,602192170.7,2.76E-03
7599,793415228.9,3.64E-03
7600,778785193.7,3.57E-03
7601,1117747392,5.13E-03
7602,1208668156,5.55E-03
7603,1196991055,5.49E-03
7604,1079532811,4.95E-03
7605,1117747380,5.13E-03
7606,1218299415,5.59E-03
7607,1208381434,5.55E-03
7608,1208668133,5.55E-03
7609,1196991032,5.49E-03
7610,1079532777,4.95E-03
7611,535022080.1,2.45E-03
7612,551597114.9,2.52E-03
7613,527712713.3,2.41E-03
7614,535022068.6,2.45E-03
7615,546641200.5,2.50E-03
7616,551597091.9,2.52E-03
7617,527712678.8,2.41E-03
7618,1209853071,5.55E-03
7619,1153627089,5.29E-03
7620,1228116742,5.63E-03
7621,1255538357,5.76E-03
7622,1209853060,5.55E-03
7623,1146572442,5.25E-03
7624,1226673688,5.63E-03
7625,1153627066,5.29E-03
7626,1228116719,5.63E-03
7627,1255538323,5.76E-03
7628,1090391404,4.99E-03
7629,1028228255,4.71E-03
7630,1156071181,5.30E-03
7631,1090391393,4.99E-03
7632,1034297988,4.74E-03
7633,1028228232,4.71E-03
7634,1156071147,5.30E-03
7635,429561473.7,1.94E-03
7636,463232848.5,2.10E-03
7637,436309099.9,1.97E-03
7638,429561462.2,1.94E-03
7639,462232673.9,2.09E-03
7640,463232825.5,2.10E-03
7641,436309065.4,1.97E-03
7642,430094558.6,1.94E-03
7643,442968192.3,2.00E-03
7644,404726418.2,1.83E-03
7645,439485186.9,1.99E-03
7646,430094547.1,1.94E-03
7647,445325095.2,2.01E-03
7648,401818803.2,1.81E-03
7649,442968169.3,2.00E-03
7650,404726395.2,1.83E-03
7651,439485152.4,1.99E-03
7652,458195778.9,2.07E-03
7653,504758519.7,2.29E-03
7654,457253862.3,2.07E-03
7655,469015425.7,2.12E-03
7656,458195767.4,2.07E-03
7657,508350545.1,2.30E-03
7658,458201844.5,2.07E-03
7659,504758496.7,2.29E-03
7660,457253839.3,2.07E-03
7661,469015391.2,2.12E-03
7662,554928872,2.52E-03
7663,638166079.2,2.90E-03
7664,507137200.2,2.30E-03
7665,585520339.8,2.66E-03
7666,554928860.5,2.52E-03
7667,642561248.3,2.92E-03
7668,509927817.3,2.31E-03
7669,638166056.2,2.90E-03
7670,507137177.2,2.30E-03
7671,585520305.3,2.66E-03
7672,725786308.3,3.31E-03
7673,612703672.3,2.79E-03
7674,780845757.3,3.56E-03
7675,725786296.8,3.31E-03
7676,618117887.7,2.81E-03
7677,612703649.3,2.79E-03
7678,780845722.8,3.56E-03
7679,1054486559,4.83E-03
7680,1123228072,5.15E-03
7681,1172475814,5.37E-03
7682,1111117621,5.09E-03
7683,1054486548,4.83E-03
7684,1112013550,5.09E-03
7685,1171486399,5.37E-03
7686,1123228049,5.15E-03
7687,1172475791,5.37E-03
7688,1111117586,5.09E-03
7689,1180790290,5.41E-03
7690,1216626903,5.58E-03
7691,1220392675,5.60E-03
7692,1180790279,5.41E-03
7693,1213927240,5.57E-03
7694,1216626880,5.58E-03
7695,1220392641,5.60E-03
7696,976837813,4.48E-03
7697,1128292007,5.18E-03
7698,944158046.6,4.33E-03
7699,976837801.5,4.48E-03
7700,1139034505,5.23E-03
7701,1128291984,5.18E-03
7702,944158012.1,4.33E-03
7703,1176300393,5.40E-03
7704,1042076345,4.79E-03
7705,1098759606,5.05E-03
7706,1223381128,5.62E-03
7707,1176300382,5.40E-03
7708,1029380288,4.73E-03
7709,1097713162,5.04E-03
7710,1042076322,4.79E-03
7711,1098759583,5.05E-03
7712,1223381093,5.62E-03
7713,895150718.4,4.11E-03
7714,734477090.5,3.37E-03
7715,845476668,3.88E-03
7716,938318480.3,4.31E-03
7717,895150706.9,4.11E-03
7718,723886881.7,3.32E-03
7719,844154374.6,3.87E-03
7720,734477067.5,3.37E-03
7721,845476645,3.88E-03
7722,938318445.8,4.31E-03
7723,563216582.4,2.58E-03
7724,435338100.1,1.99E-03
7725,538039807.9,2.46E-03
7726,583459027.8,2.67E-03
7727,563216570.9,2.58E-03
7728,429060771.4,1.96E-03
7729,537479421.1,2.46E-03
7730,435338077.1,1.99E-03
7731,538039784.9,2.46E-03
7732,583458993.4,2.67E-03
7733,301176941.2,1.37E-03
7734,336556792.3,1.53E-03
7735,292499370.2,1.33E-03
7736,301176929.7,1.37E-03
7737,334850524.6,1.52E-03
7738,336556769.3,1.53E-03
7739,292499335.7,1.33E-03
7740,1309205776,6.01E-03
7741,1301809128,5.98E-03
7742,1441707350,6.62E-03
7743,1521453853,6.99E-03
7744,1258475889,5.78E-03
7745,1309205765,6.01E-03
7746,1306868459,6.00E-03
7747,1441225966,6.62E-03
7748,1520059812,6.99E-03
7749,1301809105,5.98E-03
7750,1441707327,6.62E-03
7751,1521453830,6.99E-03
7752,1258475855,5.78E-03
7753,1299461052,5.97E-03
7754,1411443566,6.49E-03
7755,1302562942,5.98E-03
7756,1299461041,5.97E-03
7757,1411476809,6.49E-03
7758,1411443543,6.49E-03
7759,1302562907,5.98E-03
7760,435371841.4,1.99E-03
7761,420443567.6,1.92E-03
7762,440038197.5,2.01E-03
7763,435371829.9,1.99E-03
7764,418887876.5,1.91E-03
7765,420443544.6,1.92E-03
7766,440038163,2.01E-03
7767,1573758949,7.23E-03
7768,1430081093,6.57E-03
7769,1781714699,8.19E-03
7770,1493037656,6.86E-03
7771,2099272961,9.66E-03
7772,1573758937,7.23E-03
7773,1431379969,6.57E-03
7774,1770686091,8.14E-03
7775,2091647179,9.62E-03
7776,1430081070,6.57E-03
7777,1781714676,8.19E-03
7778,1493037622,6.86E-03
7779,2099272938,9.66E-03
7780,1287680422,5.91E-03
7781,1314985974,6.04E-03
7782,1235971826,5.67E-03
7783,1728633843,7.95E-03
7784,1287680411,5.91E-03
7785,1322788134,6.07E-03
7786,1726405487,7.94E-03
7787,1314985951,6.04E-03
7788,1235971792,5.67E-03
7789,1728633820,7.95E-03
7790,1350138078,6.20E-03
7791,1293970817,5.94E-03
7792,1358043669,6.23E-03
7793,1548141698,7.11E-03
7794,1350138066,6.20E-03
7795,1301147276,5.97E-03
7796,1540739801,7.08E-03
7797,1293970794,5.94E-03
7798,1358043634,6.23E-03
7799,1548141675,7.11E-03
7800,1245003789,5.71E-03
7801,1102745815,5.05E-03
7802,1294083919,5.94E-03
7803,1212733559,5.56E-03
7804,1245003778,5.71E-03
7805,1114425926,5.11E-03
7806,1204269991,5.52E-03
7807,1102745792,5.05E-03
7808,1294083885,5.94E-03
7809,1212733536,5.56E-03
7810,972150976.8,4.45E-03
7811,852147942.3,3.89E-03
7812,1038263080,4.75E-03
7813,790826926.3,3.61E-03
7814,972150965.3,4.45E-03
7815,864777609,3.95E-03
7816,777444006.5,3.55E-03
7817,852147919.4,3.89E-03
7818,1038263046,4.75E-03
7819,790826903.3,3.61E-03
7820,744748198,3.40E-03
7821,616567077.5,2.80E-03
7822,806693864.7,3.68E-03
7823,487268428.9,2.21E-03
7824,744748186.5,3.40E-03
7825,624145699.5,2.84E-03
7826,451095703.8,2.04E-03
7827,616567054.5,2.80E-03
7828,806693830.2,3.68E-03
7829,487268405.9,2.21E-03
7830,495909601.7,2.25E-03
7831,386780403.4,1.74E-03
7832,518229499.5,2.35E-03
7833,521085727.6,2.36E-03
7834,495909590.2,2.25E-03
7835,388811022.8,1.75E-03
7836,515276235.5,2.34E-03
7837,386780380.4,1.74E-03
7838,518229465.1,2.35E-03
7839,521085704.6,2.36E-03
7840,279633961.8,1.25E-03
7841,329867805,1.48E-03
7842,217558468.8,9.62E-04
7843,562554113.8,2.55E-03
7844,279633950.3,1.25E-03
7845,326243858.6,1.46E-03
7846,559839180,2.54E-03
7847,329867782,1.48E-03
7848,217558434.3,9.62E-04
7849,562554090.8,2.55E-03
7850,376443374.5,1.70E-03
7851,419015385.3,1.89E-03
7852,297924633.5,1.33E-03
7853,679786038.7,3.10E-03
7854,376443363,1.70E-03
7855,414697981.9,1.87E-03
7856,675921579.8,3.08E-03
7857,419015362.3,1.89E-03
7858,297924599,1.33E-03
7859,679786015.7,3.10E-03
7860,457256977.9,2.07E-03
7861,459644516.4,2.08E-03
7862,398749876.1,1.80E-03
7863,661031462.9,3.01E-03
7864,457256966.4,2.07E-03
7865,459768563,2.08E-03
7866,657839148.4,2.99E-03
7867,459644493.4,2.08E-03
7868,398749841.6,1.80E-03
7869,661031439.9,3.01E-03
7870,462138574.9,2.09E-03
7871,481715020.7,2.18E-03
7872,458640823.5,2.08E-03
7873,518930443.9,2.35E-03
7874,462138563.4,2.09E-03
7875,485502330.4,2.20E-03
7876,511993607.1,2.32E-03
7877,481714997.7,2.18E-03
7878,458640789,2.08E-03
7879,518930421,2.35E-03
7880,505062985,2.29E-03
7881,610074358.3,2.78E-03
7882,553777361.2,2.52E-03
7883,364576716.2,1.64E-03
7884,505062973.5,2.29E-03
7885,616399321.7,2.81E-03
7886,323377903.3,1.45E-03
7887,610074335.4,2.78E-03
7888,553777326.7,2.52E-03
7889,364576693.2,1.64E-03
7890,721397506.7,3.29E-03
7891,881345584.3,4.03E-03
7892,781927311.6,3.57E-03
7893,648556687.1,2.95E-03
7894,721397495.2,3.29E-03
7895,890164881.9,4.07E-03
7896,630818956.1,2.87E-03
7897,881345561.3,4.03E-03
7898,781927277.1,3.57E-03
7899,648556664.1,2.95E-03
7900,1050106886,4.81E-03
7901,1164790357,5.34E-03
7902,1098021558,5.03E-03
7903,1106905175,5.07E-03
7904,1050106874,4.81E-03
7905,1174716902,5.39E-03
7906,1098050691,5.03E-03
7907,1164790334,5.34E-03
7908,1098021523,5.03E-03
7909,1106905152,5.07E-03
7910,1289423106,5.92E-03
7911,1265809745,5.81E-03
7912,1333910515,6.12E-03
7913,1467447144,6.74E-03
7914,1289423094,5.92E-03
7915,1273333279,5.84E-03
7916,1460911635,6.71E-03
7917,1265809722,5.81E-03
7918,1333910481,6.12E-03
7919,1467447121,6.74E-03
7920,1249751359,5.73E-03
7921,1267039288,5.81E-03
7922,1256663554,5.77E-03
7923,1632613460,7.50E-03
7924,1249751347,5.73E-03
7925,1273259423,5.84E-03
7926,1627853871,7.48E-03
7927,1267039265,5.81E-03
7928,1256663520,5.77E-03
7929,1632613437,7.50E-03
7930,1290536594,5.92E-03
7931,1377947918,6.33E-03
7932,1227091400,5.63E-03
7933,1862572218,8.57E-03
7934,1290536582,5.92E-03
7935,1380739403,6.34E-03
7936,1858456866,8.55E-03
7937,1377947895,6.33E-03
7938,1227091365,5.63E-03
7939,1862572195,8.57E-03
7940,1468126260,6.75E-03
7941,1491782897,6.86E-03
7942,1392654593,6.40E-03
7943,2037344391,9.37E-03
7944,1468126249,6.75E-03
7945,1489912864,6.85E-03
7946,2030776810,9.34E-03
7947,1491782874,6.86E-03
7948,1392654559,6.40E-03
7949,2037344368,9.37E-03
7950,1513569123,6.96E-03
7951,1498000105,6.89E-03
7952,1461501541,6.72E-03
7953,2032540431,9.35E-03
7954,1513569111,6.96E-03
7955,1495673310,6.88E-03
7956,2024691805,9.32E-03
7957,1498000082,6.89E-03
7958,1461501507,6.72E-03
7959,2032540408,9.35E-03
7960,1480086245,6.80E-03
7961,1477864342,6.79E-03
7962,1452886931,6.68E-03
7963,1872571213,8.62E-03
7964,1480086233,6.80E-03
7965,1471335569,6.76E-03
7966,1863660222,8.58E-03
7967,1477864319,6.79E-03
7968,1452886896,6.68E-03
7969,1872571190,8.62E-03
7970,1469096139,6.75E-03
7971,1321701835,6.07E-03
7972,1443952066,6.64E-03
7973,1661040417,7.64E-03
7974,1469096128,6.75E-03
7975,1318878255,6.06E-03
7976,1647342983,7.58E-03
7977,1321701812,6.07E-03
7978,1443952031,6.64E-03
7979,1661040394,7.64E-03
7980,1171489330,5.38E-03
7981,1091717884,5.01E-03
7982,1201791965,5.52E-03
7983,1198760000,5.51E-03
7984,1171489318,5.38E-03
7985,1099856187,5.05E-03
7986,1191216172,5.47E-03
7987,1091717861,5.01E-03
7988,1201791931,5.52E-03
7989,1198759977,5.51E-03
7990,1020117160,4.68E-03
7991,902085310.6,4.14E-03
7992,1089377931,5.00E-03
7993,818741470.5,3.75E-03
7994,1020117148,4.68E-03
7995,912436545.7,4.19E-03
7996,805807677.6,3.69E-03
7997,902085287.6,4.14E-03
7998,1089377897,5.00E-03
7999,818741447.5,3.75E-03
8000,794450477,3.64E-03
8001,648990970.6,2.97E-03
8002,861791834.4,3.95E-03
8003,509952272.5,2.33E-03
8004,794450465.5,3.64E-03
8005,657722241.2,3.01E-03
8006,473695164.6,2.16E-03
8007,648990947.6,2.97E-03
8008,861791800,3.95E-03
8009,509952249.5,2.33E-03
8010,512285987.8,2.34E-03
8011,439249792,2.01E-03
8012,540736412.3,2.47E-03
8013,531904670.2,2.43E-03
8014,512285976.3,2.34E-03
8015,443262375.1,2.02E-03
8016,527686399.8,2.41E-03
8017,439249769,2.01E-03
8018,540736377.8,2.47E-03
8019,531904647.2,2.43E-03
8020,370248391.2,1.69E-03
8021,331770875.9,1.51E-03
8022,332132359.5,1.51E-03
8023,603382859.1,2.76E-03
8024,370248379.7,1.69E-03
8025,331474223,1.51E-03
8026,600813154.1,2.75E-03
8027,331770852.9,1.51E-03
8028,332132325,1.51E-03
8029,603382836.1,2.76E-03
8030,293005589.3,1.33E-03
8031,347693553.5,1.58E-03
8032,220517458,9.96E-04
8033,596289353.5,2.73E-03
8034,293005577.8,1.33E-03
8035,349237106.1,1.59E-03
8036,594023231,2.72E-03
8037,347693530.5,1.58E-03
8038,220517423.5,9.96E-04
8039,596289330.5,2.73E-03
8040,403949190.9,1.84E-03
8041,611630878.6,2.80E-03
8042,424621880,1.94E-03
8043,592832372.5,2.71E-03
8044,403949179.4,1.84E-03
8045,613907910.4,2.81E-03
8046,591171333,2.71E-03
8047,611630855.6,2.80E-03
8048,424621845.5,1.94E-03
8049,592832349.5,2.71E-03
8050,821619618.9,3.77E-03
8051,878187798.6,4.03E-03
8052,885212115.7,4.06E-03
8053,626950622.3,2.87E-03
8054,821619607.4,3.77E-03
8055,884857408,4.06E-03
8056,614758985.1,2.81E-03
8057,878187775.6,4.03E-03
8058,885212081.2,4.06E-03
8059,626950599.3,2.87E-03
8060,941422322.3,4.32E-03
8061,946177728.2,4.34E-03
8062,1013948153,4.66E-03
8063,575055556.3,2.63E-03
8064,941422310.8,4.32E-03
8065,954686154.9,4.38E-03
8066,525563340.2,2.40E-03
8067,946177705.2,4.34E-03
8068,1013948119,4.66E-03
8069,575055533.3,2.63E-03
8070,959446246.2,4.40E-03
8071,1038208075,4.77E-03
8072,1005510017,4.62E-03
8073,799376201.6,3.67E-03
8074,959446234.7,4.40E-03
8075,1035408585,4.75E-03
8076,783995038,3.59E-03
8077,1038208052,4.77E-03
8078,1005509982,4.62E-03
8079,799376178.6,3.67E-03
8080,1114149274,5.12E-03
8081,1209084560,5.56E-03
8082,1121228737,5.15E-03
8083,1180573253,5.42E-03
8084,1114149263,5.12E-03
8085,1204247151,5.53E-03
8086,1164084322,5.35E-03
8087,1209084537,5.56E-03
8088,1121228702,5.15E-03
8089,1180573230,5.42E-03
8090,1299172199,5.97E-03
8091,1412188385,6.49E-03
8092,1301037578,5.98E-03
8093,1541555350,7.09E-03
8094,1299172187,5.97E-03
8095,1410425089,6.48E-03
8096,1531800325,7.04E-03
8097,1412188362,6.49E-03
8098,1301037543,5.98E-03
8099,1541555327,7.09E-03
8100,1523436243,7.00E-03
8101,1631050666,7.50E-03
8102,1488460756,6.84E-03
8103,1895595024,8.72E-03
8104,1523436232,7.00E-03
8105,1624652371,7.47E-03
8106,1886229005,8.68E-03
8107,1631050643,7.50E-03
8108,1488460721,6.84E-03
8109,1895595001,8.72E-03
8110,1978643545,9.10E-03
8111,1861420249,8.56E-03
8112,1892774535,8.71E-03
8113,2379014370,1.10E-02
8114,1978643533,9.10E-03
8115,1849501164,8.51E-03
8116,2367097021,1.09E-02
8117,1861420226,8.56E-03
8118,1892774501,8.71E-03
8119,2379014347,1.10E-02
8120,1732266620,7.97E-03
8121,1660593901,7.64E-03
8122,2165441250,9.97E-03
8123,1732266609,7.97E-03
8124,2154300699,9.92E-03
8125,1660593866,7.64E-03
8126,2165441227,9.97E-03
8127,1691951832,7.78E-03
8128,1518008881,6.98E-03
8129,1397672651,6.42E-03
8130,1992477500,9.17E-03
8131,1604119184,7.37E-03
8132,2187348043,1.01E-02
8133,1377347430,6.33E-03
8134,1379603763,6.34E-03
8135,1778446923,8.18E-03
8136,1213247317,5.57E-03
8137,1313200637,6.04E-03
8138,1487784526,6.84E-03
8139,1088558617,5.00E-03
8140,1157979532,5.32E-03
8141,1073270929,4.93E-03
8142,1188530505,5.46E-03
8143,853308889.6,3.91E-03
8144,1020956332,4.69E-03
8145,1214541618,5.58E-03
8146,653091102.8,2.99E-03
8147,698163378.7,3.20E-03
8148,870600139.1,4.00E-03
8149,1089477457,5.01E-03
8150,618815584.5,2.83E-03
8151,297402318.4,1.35E-03
8152,444195197.4,2.03E-03
8153,515183741.7,2.36E-03
8154,220841787.2,9.97E-04
8155,173263241.4,7.78E-04
8156,416937573.6,1.90E-03
8157,433581497.3,1.98E-03
8158,288066087.4,1.31E-03
8159,464842262.3,2.12E-03
8160,753507255.5,3.46E-03
8161,586142822.6,2.68E-03
8162,478484754.5,2.19E-03
8163,1049065887,4.82E-03
8164,954683938.9,4.38E-03
8165,562285377.8,2.57E-03
8166,1199461210,5.51E-03
8167,1214086045,5.58E-03
8168,900242598,4.13E-03
8169,1324068920,6.09E-03
8170,1285916004,5.91E-03
8171,1208723041,5.55E-03
8172,1419004360,6.52E-03
8173,1576817118,7.25E-03
8174,1416432964,6.51E-03
8175,1380816216,6.35E-03
8176,1763351771,8.11E-03
8177,1362410893,6.26E-03
8178,1310353749,6.02E-03
8179,1881284716,8.65E-03
8180,1241823410,5.70E-03
8181,1175482847,5.40E-03
8182,1856878723,8.54E-03
8183,1216714278,5.58E-03
8184,1042891182,4.78E-03
8185,1704049655,7.83E-03
8186,1324714837,6.08E-03
8187,1260429327,5.78E-03
8188,1143786249,5.25E-03
8189,1566932049,7.20E-03
8190,1267094168,5.81E-03
8191,1272592722,5.84E-03
8192,1457913850,6.69E-03
8193,998586105.4,4.57E-03
8194,1152616040,5.28E-03
8195,1128157233,5.17E-03
8196,725631355.7,3.31E-03
8197,937282895.4,4.29E-03
8198,713108393.9,3.25E-03
8199,530698683.8,2.41E-03
8200,721890151.2,3.29E-03
8201,365633019.8,1.65E-03
8202,397776203.9,1.79E-03
8203,537006988.8,2.44E-03
8204,429090629.3,1.94E-03
8205,277690012.7,1.24E-03
8206,410526883.7,1.85E-03
8207,502011169.6,2.28E-03
8208,185651038.1,8.14E-04
8209,332726058.9,1.49E-03
8210,491619619.5,2.23E-03
8211,349045143.7,1.57E-03
8212,334818441.6,1.50E-03
8213,401758767.6,1.81E-03
8214,708399322.2,3.23E-03
8215,491289991.3,2.23E-03
8216,463413320.3,2.10E-03
8217,992827743.7,4.54E-03
8218,912119366.7,4.17E-03
8219,531427330.3,2.41E-03
8220,1229575849,5.64E-03
8221,1166077895,5.34E-03
8222,866331839.1,3.96E-03
8223,1358111826,6.23E-03
8224,1321427477,6.06E-03
8225,1241237968,5.69E-03
8226,1278993774,5.87E-03
8227,1265138801,5.80E-03
8228,1504130005,6.91E-03
8229,1298944701,5.96E-03
8230,1118486512,5.13E-03
8231,1083636502,4.97E-03
8232,1600351638,7.35E-03
8233,1309784157,6.01E-03
8234,1916914019,8.82E-03
8235,616620299.7,2.82E-03
8236,320044391.2,1.46E-03
8237,427524500.5,1.95E-03
8238,1259256947,5.78E-03
8239,1276565946,5.86E-03
8240,1315458532,6.04E-03
8241,1129362757,5.18E-03
8242,440616101.7,2.01E-03
8243,240460985.2,1.09E-03
8244,347949944.4,1.58E-03
8245,787269702.8,3.61E-03
8246,559567858.6,2.56E-03
8247,1119607992,5.14E-03
8248,885898177.4,4.07E-03
8249,1147291315,5.27E-03
8250,1221049110,5.61E-03
8251,1300459974,5.98E-03
8252,976616702.1,4.48E-03
8253,970013477,4.44E-03
8254,912199331,4.18E-03
8255,1208242833,5.54E-03
8256,1150480186,5.27E-03
8257,1197789431,5.49E-03
8258,899742360.7,4.11E-03
8259,1158103978,5.31E-03
8260,995033776.8,4.55E-03
8261,728219279.7,3.32E-03
8262,768888532.7,3.51E-03
8263,933560085.1,4.27E-03
8264,549772939.2,2.50E-03
8265,658499978.7,3.00E-03
8266,465569350.6,2.11E-03
8267,574306281.3,2.61E-03
8268,481867882.5,2.18E-03
8269,481987603.8,2.18E-03
8270,477131486.5,2.16E-03
8271,695095901.6,3.17E-03
8272,1257930737,5.77E-03
8273,1085436469,4.97E-03
8274,1160175769,5.32E-03
8275,1228455493,5.63E-03
8276,558675285.1,2.56E-03
8277,658170650.7,3.02E-03
8278,466882960,2.13E-03
8279,1146683555,5.26E-03
8280,1004985424,4.61E-03
8281,712220706.8,3.27E-03
8282,910674681.3,4.18E-03
8283,1201648518,5.52E-03
8284,1290885529,5.93E-03
8285,1028594846,4.72E-03
8286,1123470441,5.16E-03
8287,1081194942,4.96E-03
8288,971731268.3,4.45E-03
8289,763587357,3.48E-03
8290,970105945.9,4.45E-03
8291,1059951286,4.86E-03
8292,938726893.7,4.30E-03
8293,841929705.4,3.84E-03
8294,1071388238,4.91E-03
8295,956206124.4,4.37E-03
8296,580834925.4,2.64E-03
8297,638876035.9,2.91E-03
8298,575840157.5,2.62E-03
8299,774608050.6,3.53E-03
8300,579199168.7,2.63E-03
8301,947678012.2,4.34E-03
8302,1069790727,4.90E-03
8303,614898144.4,2.82E-03
8304,656127241.6,3.01E-03
8305,644814348.8,2.96E-03
8306,755376491.7,3.47E-03
8307,681469265.1,3.13E-03
8308,523143475.3,2.39E-03
8309,1080183063,4.96E-03
8310,1130116490,5.19E-03
8311,1193806817,5.48E-03
8312,1062343110,4.88E-03
8313,961819908.6,4.42E-03
8314,913583062,4.19E-03
8315,940674075.2,4.30E-03
8316,1069704860,4.90E-03
8317,987597164.7,4.52E-03
8318,803884615.7,3.69E-03
8319,730021378.3,3.35E-03
8320,755648810.2,3.47E-03
8321,852339239.4,3.91E-03
8322,933771842,4.29E-03
8323,953842581.7,4.38E-03
8324,1118749889,5.13E-03
8325,1044286158,4.78E-03
8326,1066465990,4.88E-03
8327,711343822.3,3.27E-03
8328,778406677.4,3.57E-03
8329,749095698.9,3.44E-03
8330,964223082.2,4.42E-03
8331,1033074950,4.74E-03
8332,983695027.1,4.51E-03
8333,1100470814,5.05E-03
8334,903020486.6,4.14E-03
8335,913925798.9,4.19E-03
8336,1074680036,4.92E-03
8337,753145024.7,3.43E-03
8338,929066561.6,4.25E-03
8339,847907346.3,3.87E-03
8340,637338670.8,2.90E-03
8341,678217976.9,3.09E-03
8342,745314128.7,3.40E-03
8343,673756297.4,3.07E-03
8344,840700772.9,3.84E-03
8345,923839845.9,4.22E-03
8346,1026564717,4.70E-03
8347,978596744.9,4.48E-03
8348,964008104.2,4.42E-03
8349,1086117869,4.98E-03
8350,958944819.9,4.40E-03
8351,907160616.9,4.16E-03
8352,916306248.2,4.20E-03
8353,1078479500,4.94E-03
8354,1138062152,5.22E-03
8355,1052887495,4.82E-03
8356,1021192457,4.69E-03
8357,973299772.4,4.46E-03
8358,997275941.7,4.56E-03
8359,954984958.6,4.37E-03
8360,1068665681,4.91E-03
8361,1042332104,4.79E-03
8362,1136045896,5.22E-03
8363,1022441223,4.68E-03
8364,977018325,4.47E-03
8365,965223303.7,4.42E-03
8366,1071177565,4.92E-03
8367,1045817451,4.80E-03
8368,1065918905,4.90E-03
8369,1008054882,4.63E-03
8370,1020950865,4.69E-03
8371,941835626.5,4.33E-03
8372,867045786.7,3.98E-03
8373,1019483712,4.67E-03
8374,1007445818,4.61E-03
8375,978409984.5,4.47E-03
8376,989334652.9,4.53E-03
8377,718658193.3,3.30E-03
8378,719786604,3.31E-03
8379,823443148.8,3.78E-03
8380,871292624.3,4.00E-03
8381,1023791069,4.69E-03
8382,1011212039,4.63E-03
8383,899821359.6,4.12E-03
8384,895193437,4.10E-03
8385,921522163.5,4.22E-03
8386,922932973.6,4.23E-03
8387,930976042.9,4.26E-03
8388,962050133.1,4.40E-03
8389,714685927.3,3.25E-03
8390,769172268.1,3.51E-03
8391,736854005.5,3.35E-03
8392,749810807,3.41E-03
8393,873837511.7,3.99E-03
8394,936100086.6,4.28E-03
8395,901228105,4.11E-03
8396,952718459.3,4.38E-03
8397,995641563.8,4.57E-03
8398,758701997.3,3.49E-03
8399,793168319.9,3.64E-03
8400,1021974881,4.69E-03
8401,1011187688,4.64E-03
8402,900217921.5,4.12E-03
8403,896226535.9,4.10E-03
8404,911138472.9,4.17E-03
8405,922504058,4.23E-03
8406,895669687.7,4.10E-03
8407,923549558.1,4.23E-03
8408,896501433.1,4.10E-03
8409,908961958.6,4.16E-03
8410,773004939.8,3.52E-03
8411,827246220.8,3.77E-03
8412,745369800.3,3.39E-03
8413,931531821.8,4.26E-03
8414,963250314.1,4.41E-03
8415,953345849.4,4.38E-03
8416,995667680.4,4.57E-03
8417,759809584.3,3.49E-03
8418,761103116.7,3.50E-03
8419,757515054,3.48E-03
8420,929137427.2,4.26E-03
8421,961798914.9,4.41E-03
8422,848647127,3.90E-03
8423,819618907.5,3.77E-03
8424,794115858.5,3.65E-03
8425,896499379,4.12E-03
8426,934018778.7,4.29E-03
8427,871413746.2,3.98E-03
8428,827867471.6,3.78E-03
8429,895926636.1,4.12E-03
8430,933556755.5,4.29E-03
8431,878584957.6,4.04E-03
8432,936158351.8,4.28E-03
8433,954539315.5,4.36E-03
8434,900361936.9,4.11E-03
8435,954294780.2,4.36E-03
8436,936422700.7,4.28E-03
8437,987825700,4.54E-03
8438,975863142.4,4.48E-03
8439,797664379.1,3.67E-03
8440,821017037.8,3.77E-03
8441,849483659.7,3.90E-03
8442,832142501.7,3.82E-03
8443,957979414.2,4.40E-03
8444,962584282.2,4.42E-03
8445,975325877.9,4.48E-03
8446,988256882.9,4.54E-03
8447,773353851.7,3.52E-03
8448,777352885.3,3.54E-03
8449,767561999.2,3.50E-03
8450,991249941.5,4.53E-03
8451,979806126.2,4.48E-03
8452,998167307.4,4.57E-03
8453,902179096.3,4.13E-03
8454,924140510.6,4.24E-03
8455,902520091.5,4.14E-03
8456,928502096.3,4.26E-03
8457,886413007.4,4.06E-03
8458,891876981.1,4.08E-03
8459,854635946.5,3.90E-03
8460,830432439.5,3.79E-03
8461,799606080.5,3.64E-03
8462,808526140,3.68E-03
8463,796726510.6,3.63E-03
8464,877434718.6,4.00E-03
8465,901541522,4.12E-03
8466,779840502.7,3.58E-03
8467,781141985.8,3.59E-03
8468,780540713.5,3.59E-03
8469,780833204.8,3.59E-03
8470,866215963.9,3.98E-03
8471,894378868.9,4.11E-03
8472,962269403.3,4.40E-03
8473,978684793.7,4.48E-03
8474,965900002.3,4.42E-03
8475,856816877,3.91E-03
8476,833945536.4,3.80E-03
8477,803183790.8,3.69E-03
8478,791018992,3.64E-03
8479,965232810.4,4.41E-03
8480,961623515.3,4.40E-03
8481,977331433.3,4.47E-03
8482,941537232.9,4.30E-03
8483,946897997.1,4.33E-03
8484,816659427.8,3.76E-03
8485,836691061.9,3.85E-03
8486,837183059.1,3.85E-03
8487,870344343.4,4.00E-03
8488,848672087,3.90E-03
8489,893109016.6,4.11E-03
8490,865183161.1,3.98E-03
8491,927809511.7,4.24E-03
8492,919213819,4.20E-03
8493,923677268.9,4.22E-03
8494,920195491.3,4.22E-03
8495,938422249.6,4.31E-03
8496,955773051.5,4.39E-03
8497,902844706.9,4.14E-03
8498,902308956.9,4.14E-03
8499,924682773,4.24E-03
8500,816849396.5,3.76E-03
8501,802751661.8,3.69E-03
8502,898528214,4.13E-03
8503,918081323.8,4.22E-03
8504,931913854.7,4.28E-03
8505,942147335.9,4.33E-03
8506,962710342.4,4.42E-03
8507,937069986.7,4.31E-03
8508,950759411.3,4.37E-03
8509,934700834.6,4.27E-03
8510,943295643.2,4.31E-03
8511,943168344.5,4.31E-03
8512,890210525.9,4.07E-03
8513,875219935.4,4.01E-03
8514,882400665.1,4.04E-03
8515,887862209.4,4.06E-03
8516,926523528.1,4.24E-03
8517,928226960.7,4.25E-03
8518,943534227.3,4.32E-03
8519,959944932.4,4.39E-03
8520,881196530.1,4.04E-03
8521,886780232.4,4.06E-03
8522,898599913.8,4.12E-03
8523,867599886.9,3.95E-03
8524,883112133.8,4.03E-03
8525,853234161.7,3.89E-03
8526,804465854.6,3.70E-03
8527,793390287.4,3.65E-03
8528,790408349.1,3.64E-03
8529,804674872.3,3.70E-03
8530,828312252.9,3.81E-03
8531,811386101.8,3.73E-03
8532,893379134,4.11E-03
8533,875614612.6,4.03E-03
8534,833838166.7,3.80E-03
8535,831510727.9,3.79E-03
8536,821228957,3.74E-03
8537,815969985.5,3.72E-03
8538,905127019,4.14E-03
8539,887507450.8,4.06E-03
8540,906831666.3,4.15E-03
8541,793466736.1,3.65E-03
8542,790283084.6,3.64E-03
8543,790584946.4,3.64E-03
8544,900394567,4.13E-03
8545,912317316,4.19E-03
8546,908828835.7,4.17E-03
8547,927055420.5,4.26E-03
8548,835006508.2,3.84E-03
8549,853940794.4,3.93E-03
8550,892198159.4,4.10E-03
8551,896714952.5,4.12E-03
8552,874194521.9,4.02E-03
8553,868768131.4,4.00E-03
8554,810609759.3,3.73E-03
8555,827384458.4,3.81E-03
8556,853599899.4,3.89E-03
8557,846239463.3,3.85E-03
8558,840016170.6,3.83E-03
8559,867509894.9,3.97E-03
8560,865888596,3.96E-03
8561,873046104.3,4.00E-03
8562,846753228.6,3.88E-03
8563,917862998.7,4.20E-03
8564,902658903.4,4.13E-03
8565,926874324.7,4.26E-03
8566,923020595.8,4.24E-03
8567,937756800.3,4.31E-03
8568,867510109.2,3.97E-03
8569,875252248.6,4.01E-03
8570,854639934.6,3.92E-03
8571,913467970.3,4.20E-03
8572,912971044.1,4.20E-03
8573,926852762.6,4.26E-03
8574,921936740.3,4.24E-03
8575,923219620.3,4.22E-03
8576,913680991.6,4.18E-03
8577,934873524.4,4.27E-03
8578,831610159.6,3.79E-03
8579,821331520.6,3.74E-03
8580,834170120.4,3.80E-03
8581,815692873.2,3.71E-03
8582,901961266.2,4.11E-03
8583,906385726.3,4.14E-03
8584,889011448.4,4.05E-03
8585,882460869.5,4.02E-03
8586,918276574.2,4.20E-03
8587,921670446.8,4.21E-03
8588,931920983.2,4.26E-03
8589,874332411.6,3.98E-03
8590,864598962.1,3.94E-03
8591,854209595.1,3.89E-03
8592,789825291.2,3.64E-03
8593,782610692.3,3.60E-03
8594,789602091.8,3.64E-03
8595,786626400.7,3.62E-03
8596,787710096.9,3.63E-03
8597,800194592.9,3.68E-03
8598,903857169,4.15E-03
8599,899827221.4,4.13E-03
8600,909612341.4,4.18E-03
8601,873697081.1,3.98E-03
8602,863985283.6,3.94E-03
8603,867125710.2,3.95E-03
8604,889859066.7,4.09E-03
8605,878287132.5,4.04E-03
8606,893231532,4.11E-03
8607,875466663.5,4.03E-03
8608,913467864,4.20E-03
8609,912946510.2,4.20E-03
8610,921801660.9,4.24E-03
8611,889668437.9,4.06E-03
8612,880352596.1,4.01E-03
8613,889845873.2,4.06E-03
8614,843452793.1,3.88E-03
8615,861611669,3.97E-03
8616,839856913.7,3.87E-03
8617,858793629.4,3.95E-03
8618,836000362.9,3.81E-03
8619,843174592.6,3.84E-03
8620,843895570.7,3.84E-03
8621,892588517.1,4.10E-03
8622,890451929.2,4.09E-03
8623,902373637.1,4.14E-03
8624,888357558.8,4.08E-03
8625,914702858.9,4.18E-03
8626,914089014.1,4.18E-03
8627,917482886.7,4.19E-03
8628,919409534.6,4.20E-03
8629,839625519.5,3.82E-03
8630,836018890.7,3.81E-03
8631,825733484,3.76E-03
8632,775604567.6,3.57E-03
8633,788470236,3.63E-03
8634,780358937.3,3.59E-03
8635,787353807.4,3.63E-03
8636,895182940,4.12E-03
8637,898000813,4.13E-03
8638,903361110.4,4.15E-03
8639,787170912.9,3.63E-03
8640,788845937.5,3.63E-03
8641,804143614.1,3.70E-03
8642,801354869.7,3.69E-03
8643,826753210,3.81E-03
8644,824461336.8,3.80E-03
8645,847436811.5,3.90E-03
8646,898650142.1,4.10E-03
8647,902112205.4,4.11E-03
8648,891063943.4,4.06E-03
8649,889159264,4.05E-03
8650,859793289,3.91E-03
8651,857432769.1,3.90E-03
8652,851690508,3.88E-03
8653,852407494.9,3.88E-03
8654,913311156.1,4.17E-03
8655,911635945.8,4.16E-03
8656,918790859.9,4.19E-03
8657,916114405.3,4.18E-03
8658,909061936.8,4.15E-03
8659,912842474.7,4.17E-03
8660,877730999.2,4.00E-03
8661,872952585,3.97E-03
8662,869267134.5,3.96E-03
8663,875494491.5,3.99E-03
8664,860939278,3.96E-03
8665,842647501.7,3.88E-03
8666,838962909.8,3.86E-03
8667,857814193.7,3.95E-03
8668,868885647.6,3.95E-03
8669,864971530.6,3.94E-03
8670,863989328.9,3.93E-03
8671,774040252.9,3.57E-03
8672,760906925.6,3.51E-03
8673,787554339.1,3.63E-03
8674,797780273.1,3.68E-03
8675,806818566.5,3.72E-03
8676,831295174.1,3.83E-03
8677,879727861.9,4.00E-03
8678,884631895.8,4.03E-03
8679,884323100.2,4.03E-03
8680,760906892.2,3.51E-03
8681,787466929.8,3.63E-03
8682,774040227.9,3.57E-03
8683,786906538.2,3.63E-03
8684,766902946.4,3.53E-03
8685,747871634.6,3.45E-03
8686,766902938.1,3.53E-03
8687,771679748.3,3.56E-03
8688,887965289.2,4.08E-03
8689,891152645.3,4.10E-03
8690,885471964.5,4.07E-03
8691,877363552.5,3.99E-03
8692,872698114.5,3.97E-03
8693,875025679.6,3.98E-03
8694,857489732.1,3.90E-03
8695,851701383.5,3.88E-03
8696,859977078.4,3.91E-03
8697,852587648.3,3.88E-03
8698,751190016.9,3.46E-03
8699,775715832.8,3.57E-03
8700,879552063.7,4.00E-03
8701,884497342.5,4.03E-03
8702,884083363.6,4.03E-03
8703,857387601.4,3.90E-03
8704,854407896.9,3.89E-03
8705,857429138.4,3.90E-03
8706,851658978.8,3.87E-03
8707,876383332.2,3.99E-03
8708,874970760.3,3.98E-03
8709,880444720.7,4.01E-03
8710,732163069.7,3.38E-03
8711,714519397.5,3.30E-03
8712,738039516.6,3.40E-03
8713,751190000.2,3.46E-03
8714,711939595.5,3.28E-03
8715,732163078.1,3.38E-03
8716,900889080.3,4.11E-03
8717,902047928.7,4.11E-03
8718,895635359.5,4.08E-03
8719,896212346.6,4.08E-03
8720,860000179.5,3.91E-03
8721,859076409.7,3.90E-03
8722,860929242.9,3.91E-03
8723,873667107,3.97E-03
8724,872710776.9,3.97E-03
8725,876884982.5,3.99E-03
8726,860086691.7,3.91E-03
8727,861420213.2,3.91E-03
8728,858303348.1,3.90E-03
8729,885028312,4.03E-03
8730,880881144.4,4.01E-03
8731,880335125,4.01E-03
8732,885303278.2,4.03E-03
8733,861420238.2,3.91E-03
8734,860086700.1,3.91E-03
8735,860000196.2,3.91E-03
8736,858303364.8,3.90E-03
8737,790275299.7,3.64E-03
8738,753107795.4,3.47E-03
8739,766682362.3,3.54E-03
8740,796908578.4,3.67E-03
8741,821915120.5,3.79E-03
8742,777756955.5,3.59E-03
8743,823679048.3,3.80E-03
8744,811859316.6,3.74E-03
8745,863973992.4,3.98E-03
8746,856922255.4,3.95E-03
8747,900997074,4.16E-03
8748,949773095,4.38E-03
8749,989423888.7,4.56E-03
8750,961227399.4,4.44E-03
8751,812610081.3,3.75E-03
8752,864727811.2,3.99E-03
8753,885036836,4.08E-03
8754,767704917.2,3.54E-03
8755,833251093.8,3.85E-03
8756,740572285.9,3.42E-03
8757,805691967.1,3.72E-03
8758,721349066,3.33E-03
8759,785196725.8,3.62E-03
8760,707694345.7,3.27E-03
8761,734940624.7,3.39E-03
8762,770831053.6,3.56E-03
8763,698743073.9,3.22E-03
8764,722258924.3,3.33E-03
8765,761037344.7,3.51E-03
8766,694299983.8,3.20E-03
8767,755165496.4,3.49E-03
8768,694299992.2,3.20E-03
8769,753237116.1,3.48E-03
8770,698743099,3.22E-03
8771,714519414.2,3.30E-03
8772,755187172.8,3.49E-03
8773,707672727.8,3.27E-03
8774,722258957.7,3.33E-03
8775,761015718.5,3.51E-03
8776,721349107.1,3.33E-03
8777,735136809.3,3.39E-03
8778,770852763.4,3.56E-03
8779,740899356.2,3.42E-03
8780,753565353.3,3.48E-03
8781,785001768.7,3.62E-03
8782,768576446.3,3.55E-03
8783,778518598.6,3.59E-03
8784,805152797.1,3.72E-03
8785,813219645.7,3.75E-03
8786,813448070.3,3.75E-03
8787,833384397.3,3.85E-03
8788,901278028.9,4.16E-03
8789,865094875.7,3.99E-03
8790,885340171.1,4.09E-03
8791,949728486,4.38E-03
8792,989878380.8,4.57E-03
8793,961616626.5,4.44E-03
8794,922504008.2,4.25E-03
8795,913526261.8,4.21E-03
8796,905272534.8,4.17E-03
8797,898185454,4.14E-03
8798,904360182.2,4.17E-03
8799,886783003.8,4.09E-03
8800,887511132.7,4.09E-03
8801,892161576.1,4.11E-03
8802,872795618.7,4.02E-03
8803,885668583.1,4.07E-03
8804,889198275.8,4.09E-03
8805,873654282.5,4.02E-03
8806,890782815.2,4.10E-03
8807,878955264.1,4.04E-03
8808,889458646.6,4.09E-03
8809,884176432.8,4.06E-03
8810,880865475.9,4.04E-03
8811,875208888.5,4.01E-03
8812,892586091.8,4.09E-03
8813,868147335.7,3.98E-03
8814,881196480.6,4.04E-03
8815,854596583.3,3.92E-03
8816,872537131.8,3.99E-03
8817,849732774.8,3.89E-03
8818,885035864.6,4.05E-03
8819,863520156.2,3.95E-03
8820,898473425.6,4.11E-03
8821,882837698.3,4.04E-03
8822,908735863.1,4.15E-03
8823,901104674.7,4.12E-03
8824,913772725.4,4.17E-03
8825,906250058.3,4.13E-03
8826,907383950,4.14E-03
8827,913753956.7,4.17E-03
8828,899820341.1,4.10E-03
8829,906202100.7,4.13E-03
8830,893342445.8,4.07E-03
8831,894541663.6,4.07E-03
8832,897908783.1,4.09E-03
8833,887576890.6,4.04E-03
8834,888712170.7,4.04E-03
8835,890130959.7,4.05E-03
8836,883000709.3,4.01E-03
8837,883683739.1,4.02E-03
8838,884017981.9,4.02E-03
8839,879931319.9,4.00E-03
8840,880763774,4.00E-03
8841,880523223,4.00E-03
8842,877289555.9,3.99E-03
8843,880594945.9,4.00E-03
8844,878833829.5,3.99E-03
8845,874127785.8,3.97E-03
8846,877347231.2,3.99E-03
8847,875694413.2,3.98E-03
8848,870643723.4,3.96E-03
8849,873665802.2,3.97E-03
8850,871862407.6,3.96E-03
8851,867075451.7,3.94E-03
8852,869666766.3,3.95E-03
8853,867687664.8,3.94E-03
8854,863871924,3.92E-03
8855,865750204.3,3.93E-03
8856,863727610,3.92E-03
8857,862347054.2,3.92E-03
8858,860455979.7,3.91E-03
8859,859160319,3.90E-03
8860,857528293.1,3.89E-03
8861,863871882.2,3.92E-03
8862,862347020.7,3.92E-03
8863,860455946.3,3.91E-03
8864,867075393.2,3.94E-03
8865,865769384.4,3.93E-03
8866,863727733.4,3.92E-03
8867,870643821.7,3.96E-03
8868,869687491.5,3.95E-03
8869,867687771.5,3.94E-03
8870,874168410.2,3.97E-03
8871,871862497.6,3.96E-03
8872,877328775.4,3.99E-03
8873,877387326.9,3.99E-03
8874,875734855.8,3.98E-03
8875,879950772,4.00E-03
8876,880637107.3,4.00E-03
8877,878854331,3.99E-03
8878,883021194.3,4.01E-03
8879,880522213.3,4.00E-03
8880,880784432.3,4.00E-03
8881,887576063.2,4.04E-03
8882,883705447.2,4.02E-03
8883,884018013.5,4.02E-03
8884,893362410.5,4.07E-03
8885,888712393,4.04E-03
8886,890151956.9,4.05E-03
8887,899841000.2,4.10E-03
8888,894561290,4.07E-03
8889,897907773.7,4.09E-03
8890,906250099,4.13E-03
8891,900909921.7,4.11E-03
8892,906202132.6,4.13E-03
8893,911635986.6,4.16E-03
8894,907383999.6,4.14E-03
8895,913732328.9,4.17E-03
8896,914681240,4.18E-03
8897,913311205.7,4.17E-03
8898,918790891.8,4.19E-03
8899,914067395.1,4.17E-03
8900,917482936.2,4.19E-03
8901,919387906.9,4.20E-03
8902,908714417.6,4.15E-03
8903,918254964,4.20E-03
8904,913729611.4,4.17E-03
8905,898430320.5,4.11E-03
8906,913659381.4,4.18E-03
8907,901039901.1,4.12E-03
8908,884992759.4,4.05E-03
8909,902615807.1,4.13E-03
8910,882772924.7,4.04E-03
8911,872493853.1,3.99E-03
8912,887464354.5,4.06E-03
8913,863433722.9,3.95E-03
8914,865867150.6,3.96E-03
8915,875155005.9,4.01E-03
8916,849689660.8,3.89E-03
8917,873089473.2,4.00E-03
8918,846731774.4,3.88E-03
8919,884241452.5,4.06E-03
8920,892651120.4,4.09E-03
8921,868212520.2,3.98E-03
8922,890516948.9,4.09E-03
8923,900459422,4.13E-03
8924,880930486.9,4.04E-03
8925,892631703.6,4.10E-03
8926,902417006,4.14E-03
8927,888422569.7,4.08E-03
8928,891195831.9,4.10E-03
8929,899848757.1,4.13E-03
8930,889523484,4.09E-03
8931,887986816.1,4.08E-03
8932,895204475.7,4.12E-03
8933,885515315.8,4.07E-03
8934,885690110,4.07E-03
8935,890801574.3,4.10E-03
8936,878998441.9,4.04E-03
8937,887724299.5,4.09E-03
8938,889214952.4,4.09E-03
8939,873675800.6,4.02E-03
8940,898547982.5,4.14E-03
8941,892371280.8,4.11E-03
8942,873052096,4.02E-03
8943,922935871.4,4.25E-03
8944,904247177.9,4.17E-03
8945,887126987.5,4.09E-03
8946,913462893.3,4.21E-03
8947,905143909.9,4.17E-03
8948,895397394.1,4.13E-03
8949,865320836.1,3.99E-03
8950,898348468.8,4.14E-03
8951,888665702.3,4.10E-03
8952,893854792.8,4.12E-03
8953,887682682.4,4.09E-03
8954,894315110.9,4.12E-03
8955,890311745.4,4.10E-03
8956,895232743.6,4.12E-03
8957,922999042.5,4.24E-03
8958,898578195.8,4.12E-03
8959,886736681.2,4.06E-03
8960,923032994.5,4.21E-03
8961,903729039.1,4.12E-03
8962,889892678.8,4.05E-03
8963,890165389.1,4.05E-03
8964,884800135.9,4.03E-03
8965,880650885.9,4.00E-03
8966,876884032.9,3.99E-03
8967,872710331.2,3.97E-03
8968,876339228.2,3.99E-03
8969,868342386.6,3.95E-03
8970,871236069.1,3.96E-03
8971,864226896.2,3.93E-03
8972,865868828.9,3.94E-03
8973,860929268,3.91E-03
8974,860947765.5,3.91E-03
8975,859076418,3.90E-03
8976,857387618.1,3.90E-03
8977,856093408.1,3.89E-03
8978,864246258.2,3.93E-03
8979,860968003.5,3.91E-03
8980,868360690.7,3.95E-03
8981,865928725.4,3.94E-03
8982,871276718.9,3.96E-03
8983,880672090.2,4.00E-03
8984,880947585.7,4.01E-03
8985,884844380,4.03E-03
8986,889892736.4,4.05E-03
8987,885096133.4,4.03E-03
8988,895633508.6,4.08E-03
8989,890144489.9,4.05E-03
8990,902068779,4.11E-03
8991,896211545.7,4.08E-03
8992,909061995.1,4.15E-03
8993,903812968.2,4.12E-03
8994,916114290.1,4.18E-03
8995,912925536.3,4.17E-03
8996,921670505.2,4.21E-03
8997,923031673.3,4.21E-03
8998,923219678.7,4.22E-03
8999,931812578.3,4.26E-03
9000,917841397.4,4.20E-03
9001,905083758,4.14E-03
9002,926308907.3,4.24E-03
9003,890123945.6,4.07E-03
9004,906574420.2,4.15E-03
9005,882379237.3,4.04E-03
9006,887819130.6,4.06E-03
9007,886239797.1,4.06E-03
9008,908893873.1,4.17E-03
9009,920434856.3,4.22E-03
9010,912360693.8,4.19E-03
9011,927098633.5,4.26E-03
9012,909633885.9,4.18E-03
9013,903857053.8,4.15E-03
9014,898019754.4,4.13E-03
9015,903336741.3,4.15E-03
9016,894350679.4,4.12E-03
9017,895184111.6,4.12E-03
9018,893868007.3,4.12E-03
9019,890174912.6,4.10E-03
9020,898082536.5,4.14E-03
9021,887483646.7,4.09E-03
9022,894789574.6,4.12E-03
9023,887752781.6,4.09E-03
9024,749509732.4,3.46E-03
9025,776065119.4,3.58E-03
9026,738061201.4,3.40E-03
9027,749749297.5,3.46E-03
9028,767357966.4,3.54E-03
9029,776392164.5,3.58E-03
9030,791189246.3,3.65E-03
9031,823393866.7,3.80E-03
9032,824701179.9,3.80E-03
9033,858595617,3.96E-03
9034,874864792.5,3.98E-03
9035,868785038.7,3.95E-03
9036,862613266.6,3.92E-03
9037,857409065.6,3.90E-03
9038,854407905.3,3.89E-03
9039,851685167.1,3.87E-03
9040,849523528.6,3.86E-03
9041,862652379.5,3.92E-03
9042,868845794.8,3.95E-03
9043,865159303.1,3.94E-03
9044,885350142.8,4.03E-03
9045,890703296.8,4.06E-03
9046,897958511.4,4.09E-03
9047,890414599,4.06E-03
9048,907679632.9,4.14E-03
9049,898988104.3,4.10E-03
9050,919846216.5,4.20E-03
9051,911245491.4,4.16E-03
9052,933155210.3,4.26E-03
9053,927798181.2,4.25E-03
9054,958871924.3,4.39E-03
9055,904269084.6,4.14E-03
9056,891682293.3,4.08E-03
9057,938661449.9,4.31E-03
9058,957364705.7,4.39E-03
9059,958325880.4,4.40E-03
9060,900480479.9,4.14E-03
9061,903678288.3,4.16E-03
9062,891011641.9,4.10E-03
9063,889704062.5,4.09E-03
9064,883796452,4.07E-03
9065,879308716.7,4.05E-03
9066,877162603,4.04E-03
9067,869495058.6,4.01E-03
9068,858686356.7,3.96E-03
9069,830315225,3.83E-03
9070,851023341.5,3.92E-03
9071,806295604.4,3.72E-03
9072,826010849,3.81E-03
9073,804486222.3,3.71E-03
9074,804527508.9,3.71E-03
9075,859902878.2,3.96E-03
9076,851980875.4,3.93E-03
9077,878008644.5,4.05E-03
9078,884145535.1,4.07E-03
9079,870081869.6,4.01E-03
9080,891232848.8,4.10E-03
9081,879636304.9,4.05E-03
9082,900593908.6,4.14E-03
9083,903944367.2,4.16E-03
9084,937713752,4.31E-03
9085,942346353.2,4.33E-03
9086,904482829.1,4.14E-03
9087,943576969.6,4.31E-03
9088,933265168.3,4.26E-03
9089,947178794.2,4.33E-03
9090,919764708,4.20E-03
9091,927703905.3,4.24E-03
9092,907491040.9,4.14E-03
9093,910949460,4.16E-03
9094,897896233.4,4.09E-03
9095,890744805.6,4.06E-03
9096,890329264.9,4.06E-03
9097,891446447.8,4.06E-03
9098,882107558.1,4.02E-03
9099,902579266.6,4.12E-03
9100,902731918.7,4.12E-03
9101,977024277.3,4.49E-03
9102,912531356.5,4.20E-03
9103,917072412.2,4.22E-03
9104,892902391.4,4.11E-03
9105,878003913.8,4.04E-03
9106,874898059.7,4.03E-03
9107,864990001.9,3.98E-03
9108,846716935.3,3.90E-03
9109,824201015.7,3.80E-03
9110,803946900.3,3.70E-03
9111,820518679.7,3.78E-03
9112,800627225.6,3.69E-03
9113,780491853.8,3.60E-03
9114,820867713.3,3.78E-03
9115,865598637.4,3.99E-03
9116,912929640.8,4.20E-03
9117,937447305.3,4.31E-03
9118,951265117.8,4.37E-03
9119,960157338.1,4.41E-03
9120,941624125.3,4.30E-03
9121,954442478.1,4.36E-03
9122,918915522.9,4.19E-03
9123,923312249.7,4.22E-03
9124,881723136.9,4.02E-03
9125,846804781.6,3.85E-03
9126,846778601.6,3.85E-03
9127,843166766.9,3.84E-03
9128,864369609.4,3.94E-03
9129,817196055,3.76E-03
9130,833974398.2,3.84E-03
9131,799529506.8,3.68E-03
9132,818076539.4,3.77E-03
9133,976926091.9,4.49E-03
9134,936140320.1,4.28E-03
9135,900312874.9,4.11E-03
9136,879841679,4.01E-03
9137,870130055.1,3.96E-03
9138,856627624,3.90E-03
9139,844057370,3.84E-03
9140,856982435.2,3.90E-03
9141,846612124.9,3.86E-03
9142,870597487,3.97E-03
9143,907222754.9,4.14E-03
9144,930732888.9,4.28E-03
9145,852844738.8,3.92E-03
9146,876413148.4,4.00E-03
9147,853544410.8,3.89E-03
9148,805987986.3,3.67E-03
9149,839841093.4,3.83E-03
9150,1195309794,5.49E-03
9151,847420430.7,3.90E-03
9152,822154410,3.75E-03
9153,800738038.4,3.65E-03
9154,800358709.5,3.64E-03
9155,821370613.8,3.74E-03
9156,790555329.2,3.60E-03
9157,777238058.9,3.57E-03
9158,1129520069,5.19E-03
9159,671176896.5,3.06E-03
9160,1274776014,5.86E-03
9161,1329748094,6.11E-03
9162,1091322721,5.00E-03
9163,928275915.4,4.24E-03
9164,1282981357,5.90E-03
9165,1282981311,5.90E-03
9166,1329748048,6.11E-03
9167,1290885483,5.93E-03
9168,1214541572,5.58E-03
9169,928275869.4,4.24E-03
9170,671176850.5,3.06E-03
9171,763587311,3.48E-03
9172,995033730.8,4.55E-03
9173,1129520023,5.19E-03
9174,1193806771,5.48E-03
9175,1089477411,5.01E-03
9176,1091322675,5.00E-03
9177,933560039.1,4.27E-03
9178,937282849.4,4.29E-03
9179,1158103932,5.31E-03
9180,1152615994,5.28E-03
9181,987597118.8,4.52E-03
9182,1085436423,4.97E-03
9183,695095855.6,3.17E-03
9184,912119320.7,4.17E-03
9185,1315458486,6.04E-03
9186,1188530459,5.46E-03
9187,1313200591,6.04E-03
9188,1274775968,5.86E-03
9189,1195309748,5.49E-03
9190,1123470395,5.16E-03
9191,1310353703,6.02E-03
9192,523143429.3,2.39E-03
9193,466882914,2.13E-03
9194,347949898.4,1.58E-03
9195,427524454.5,1.95E-03
9196,1300459928,5.98E-03
9197,1380816170,6.35E-03
9198,1285915958,5.91E-03
9199,240460939.2,1.09E-03
9200,320044345.2,1.46E-03
9201,173263195.4,7.78E-04
9202,575840111.5,2.62E-03
9203,477131440.5,2.16E-03
9204,481867836.5,2.18E-03
9205,334818395.6,1.50E-03
9206,755648764.2,3.47E-03
9207,913583016,4.19E-03
9208,658170604.7,3.02E-03
9209,885898131.4,4.07E-03
9210,777238012.9,3.57E-03
9211,794115812.5,3.65E-03
9212,757515008,3.48E-03
9213,749095652.9,3.44E-03
9214,790555283.2,3.60E-03
9215,799606034.5,3.64E-03
9216,767561953.2,3.50E-03
9217,745369754.3,3.39E-03
9218,1065918859,4.90E-03
9219,953842535.7,4.38E-03
9220,910674635.3,4.18E-03
9221,790584900.5,3.64E-03
9222,802751615.8,3.69E-03
9223,780833158.8,3.59E-03
9224,832142455.7,3.82E-03
9225,878584911.6,4.04E-03
9226,793168273.9,3.64E-03
9227,867045740.8,3.98E-03
9228,821370567.8,3.74E-03
9229,839841047.4,3.83E-03
9230,853234115.7,3.89E-03
9231,830432393.6,3.79E-03
9232,800358663.5,3.64E-03
9233,815692827.2,3.71E-03
9234,800737992.4,3.65E-03
9235,805987940.3,3.67E-03
9236,777352839.4,3.54E-03
9237,822154364,3.75E-03
9238,815969939.5,3.72E-03
9239,796726464.7,3.63E-03
9240,853544364.8,3.89E-03
9241,840016124.6,3.83E-03
9242,833945490.4,3.80E-03
9243,786626354.7,3.62E-03
9244,790283038.6,3.64E-03
9245,790408303.1,3.64E-03
9246,780540667.5,3.59E-03
9247,847420384.7,3.90E-03
9248,852844692.8,3.92E-03
9249,833974352.2,3.84E-03
9250,827384412.4,3.81E-03
9251,868768085.4,4.00E-03
9252,865183115.1,3.98E-03
9253,836691015.9,3.85E-03
9254,1136045850,5.22E-03
9255,1100470768,5.05E-03
9256,1221049064,5.61E-03
9257,846612078.9,3.86E-03
9258,854209549.1,3.89E-03
9259,834170074.4,3.80E-03
9260,825733438,3.76E-03
9261,821331474.6,3.74E-03
9262,821228911,3.74E-03
9263,876413102.4,4.00E-03
9264,867125664.2,3.95E-03
9265,882460823.5,4.02E-03
9266,900312828.9,4.11E-03
9267,856816831,3.91E-03
9268,900361890.9,4.11E-03
9269,998167261.4,4.57E-03
9270,954539269.5,4.36E-03
9271,1052887449,4.82E-03
9272,923839799.9,4.22E-03
9273,1138062106,5.22E-03
9274,1086117823,4.98E-03
9275,1069790681,4.90E-03
9276,1228455447,5.63E-03
9277,1265138755,5.80E-03
9278,874898013.7,4.03E-03
9279,857814147.7,3.95E-03
9280,874194475.9,4.02E-03
9281,930732842.9,4.28E-03
9282,917072366.2,4.22E-03
9283,896714906.5,4.12E-03
9284,893108970.6,4.11E-03
9285,950759365.3,4.37E-03
9286,975863096.4,4.48E-03
9287,933556709.5,4.29E-03
9288,911138426.9,4.17E-03
9289,965223257.7,4.42E-03
9290,913925752.9,4.19E-03
9291,971731222.3,4.45E-03
9292,907222708.9,4.14E-03
9293,923677222.9,4.22E-03
9294,901541476,4.12E-03
9295,936422654.7,4.28E-03
9296,902731872.7,4.12E-03
9297,889845827.2,4.06E-03
9298,883112087.8,4.03E-03
9299,870597441,3.97E-03
9300,882107512.1,4.02E-03
9301,875494445.5,3.99E-03
9302,880352550.1,4.01E-03
9303,856982389.2,3.90E-03
9304,864369563.4,3.94E-03
9305,864598916.2,3.94E-03
9306,844057324.1,3.84E-03
9307,852587602.3,3.88E-03
9308,843166720.9,3.84E-03
9309,836018844.7,3.81E-03
9310,831610113.7,3.79E-03
9311,856627578,3.90E-03
9312,852407448.9,3.88E-03
9313,843895524.7,3.84E-03
9314,846239417.3,3.85E-03
9315,870130009.1,3.96E-03
9316,863989282.9,3.93E-03
9317,863985237.6,3.94E-03
9318,879841633,4.01E-03
9319,881723090.9,4.02E-03
9320,875025633.7,3.98E-03
9321,889159218.1,4.05E-03
9322,873697035.1,3.98E-03
9323,889011402.4,4.05E-03
9324,936140274.1,4.28E-03
9325,923312203.7,4.22E-03
9326,906385680.3,4.14E-03
9327,954442432.1,4.36E-03
9328,979806080.2,4.48E-03
9329,936158305.8,4.28E-03
9330,908961912.6,4.16E-03
9331,916306202.2,4.20E-03
9332,964008058.2,4.42E-03
9333,947677966.2,4.34E-03
9334,976926045.9,4.49E-03
9335,988256836.9,4.54E-03
9336,995641517.8,4.57E-03
9337,1020950819,4.69E-03
9338,951265071.8,4.37E-03
9339,931913808.7,4.28E-03
9340,934018732.7,4.29E-03
9341,858793583.4,3.95E-03
9342,875466617.6,4.03E-03
9343,853940748.4,3.93E-03
9344,875614566.6,4.03E-03
9345,818076493.4,3.77E-03
9346,820867667.3,3.78E-03
9347,839856867.8,3.87E-03
9348,835006462.2,3.84E-03
9349,801354823.7,3.69E-03
9350,800194546.9,3.68E-03
9351,811386055.8,3.73E-03
9352,799529460.8,3.68E-03
9353,787353761.5,3.63E-03
9354,789602045.9,3.64E-03
9355,793390241.4,3.65E-03
9356,817196009,3.76E-03
9357,800627179.6,3.69E-03
9358,810609713.3,3.73E-03
9359,820518633.7,3.78E-03
9360,838962863.8,3.86E-03
9361,865159257.1,3.94E-03
9362,859977032.4,3.91E-03
9363,869267088.5,3.96E-03
9364,846778555.7,3.85E-03
9365,851658932.8,3.87E-03
9366,851701337.5,3.88E-03
9367,846804735.6,3.85E-03
9368,849523482.6,3.86E-03
9369,839625473.5,3.82E-03
9370,851685121.1,3.87E-03
9371,851690462,3.88E-03
9372,843174546.6,3.84E-03
9373,890329218.9,4.06E-03
9374,884083317.6,4.03E-03
9375,891063897.4,4.06E-03
9376,918915476.9,4.19E-03
9377,910949414.1,4.16E-03
9378,902112159.4,4.11E-03
9379,901961220.2,4.11E-03
9380,941624079.3,4.30E-03
9381,927703859.3,4.24E-03
9382,947178748.2,4.33E-03
9383,965899956.3,4.42E-03
9384,959944886.4,4.39E-03
9385,978684747.7,4.48E-03
9386,963250268.1,4.41E-03
9387,1011211993,4.63E-03
9388,960157292.1,4.41E-03
9389,928502050.3,4.26E-03
9390,921522117.5,4.22E-03
9391,973299726.4,4.46E-03
9392,955773005.6,4.39E-03
9393,975325831.9,4.48E-03
9394,1008054836,4.63E-03
9395,937447259.3,4.31E-03
9396,942346307.2,4.33E-03
9397,962584236.2,4.42E-03
9398,912929594.8,4.20E-03
9399,921936694.3,4.24E-03
9400,918081277.8,4.22E-03
9401,903944321.2,4.16E-03
9402,893231486,4.11E-03
9403,893379088,4.11E-03
9404,865598591.4,3.99E-03
9405,879636258.9,4.05E-03
9406,861611623,3.97E-03
9407,878287086.5,4.04E-03
9408,870081823.6,4.01E-03
9409,851980829.4,3.93E-03
9410,847436765.5,3.90E-03
9411,804527462.9,3.71E-03
9412,824461290.8,3.80E-03
9413,804143568.1,3.70E-03
9414,780491807.8,3.60E-03
9415,775715786.9,3.57E-03
9416,788845891.5,3.63E-03
9417,787710050.9,3.63E-03
9418,771679702.3,3.56E-03
9419,780358891.3,3.59E-03
9420,782610646.3,3.60E-03
9421,803946854.3,3.70E-03
9422,786906492.2,3.63E-03
9423,788470190,3.63E-03
9424,824200969.7,3.80E-03
9425,804486176.3,3.71E-03
9426,846716889.3,3.90E-03
9427,826010803.1,3.81E-03
9428,842647455.7,3.88E-03
9429,864989955.9,3.98E-03
9430,851023295.5,3.92E-03
9431,869495012.6,4.01E-03
9432,878003867.8,4.04E-03
9433,879308670.7,4.05E-03
9434,860939232,3.96E-03
9435,892902345.4,4.11E-03
9436,889704016.5,4.09E-03
9437,912531310.5,4.20E-03
9438,903678242.3,4.16E-03
9439,892198113.4,4.10E-03
9440,921801614.9,4.24E-03
9441,937069940.7,4.31E-03
9442,977024231.4,4.49E-03
9443,958325834.4,4.40E-03
9444,962710296.4,4.42E-03
9445,987825654,4.54E-03
9446,957364659.7,4.39E-03
9447,961798868.9,4.41E-03
9448,1011187642,4.64E-03
9449,958871878.3,4.39E-03
9450,977331387.3,4.47E-03
9451,962050087.1,4.40E-03
9452,1007445772,4.61E-03
9453,902579220.6,4.12E-03
9454,911245445.4,4.16E-03
9455,919213773,4.20E-03
9456,891446401.8,4.06E-03
9457,898988058.3,4.10E-03
9458,889668391.9,4.06E-03
9459,890414553,4.06E-03
9460,884323054.2,4.03E-03
9461,890744759.6,4.06E-03
9462,890165343.1,4.05E-03
9463,885303232.2,4.03E-03
9464,884497296.5,4.03E-03
9465,897896187.4,4.09E-03
9466,896212300.6,4.08E-03
9467,907490994.9,4.14E-03
9468,903728993.1,4.12E-03
9469,898650096.2,4.10E-03
9470,919764662,4.20E-03
9471,912842428.7,4.17E-03
9472,933265122.3,4.26E-03
9473,923032948.5,4.21E-03
9474,943576923.6,4.31E-03
9475,931920937.2,4.26E-03
9476,934873478.4,4.27E-03
9477,943534181.3,4.32E-03
9478,962269357.4,4.40E-03
9479,904482783.1,4.14E-03
9480,906831620.3,4.15E-03
9481,928226914.7,4.25E-03
9482,931531775.8,4.26E-03
9483,887862163.4,4.06E-03
9484,891876935.1,4.08E-03
9485,896501387.1,4.10E-03
9486,937713706,4.31E-03
9487,927055374.5,4.26E-03
9488,938422203.6,4.31E-03
9489,957979368.2,4.40E-03
9490,922998996.5,4.24E-03
9491,926852716.6,4.26E-03
9492,900593862.6,4.14E-03
9493,903361064.4,4.15E-03
9494,912970998.1,4.20E-03
9495,891232802.8,4.10E-03
9496,895232697.6,4.12E-03
9497,889859020.7,4.09E-03
9498,884145489.1,4.07E-03
9499,890311699.4,4.10E-03
9500,878008598.5,4.05E-03
9501,887682636.4,4.09E-03
9502,859902832.2,3.96E-03
9503,858595571,3.96E-03
9504,888665656.3,4.10E-03
9505,824701134,3.80E-03
9506,831295128.1,3.83E-03
9507,776392118.5,3.58E-03
9508,806818520.5,3.72E-03
9509,787554293.1,3.63E-03
9510,751189954.2,3.46E-03
9511,766902892.1,3.53E-03
9512,774040181.9,3.57E-03
9513,775604521.7,3.57E-03
9514,806295558.4,3.72E-03
9515,776065073.4,3.58E-03
9516,787466883.9,3.63E-03
9517,830315179,3.83E-03
9518,796908532.4,3.67E-03
9519,858686310.7,3.96E-03
9520,823679002.3,3.80E-03
9521,877162557,4.04E-03
9522,887752735.6,4.09E-03
9523,856922209.4,3.95E-03
9524,883796406,4.07E-03
9525,887483600.7,4.09E-03
9526,891011595.9,4.10E-03
9527,890174866.6,4.10E-03
9528,900480433.9,4.14E-03
9529,895184065.6,4.12E-03
9530,903336695.3,4.15E-03
9531,912946464.2,4.20E-03
9532,938661403.9,4.31E-03
9533,927098587.5,4.26E-03
9534,937756754.3,4.31E-03
9535,920434810.3,4.22E-03
9536,924682727,4.24E-03
9537,891682247.3,4.08E-03
9538,886239751.1,4.06E-03
9539,902308910.9,4.14E-03
9540,895669641.7,4.10E-03
9541,904269038.7,4.14E-03
9542,887819084.6,4.06E-03
9543,896226489.9,4.10E-03
9544,927798135.2,4.25E-03
9545,906574374.2,4.15E-03
9546,930975996.9,4.26E-03
9547,926308861.3,4.24E-03
9548,943168298.5,4.31E-03
9549,933155164.3,4.26E-03
9550,931812532.4,4.26E-03
9551,943295597.2,4.31E-03
9552,946897951.1,4.33E-03
9553,919846170.5,4.20E-03
9554,923031627.3,4.21E-03
9555,927809465.7,4.24E-03
9556,907679586.9,4.14E-03
9557,912925490.3,4.17E-03
9558,897958465.4,4.09E-03
9559,903812922.2,4.12E-03
9560,890703250.8,4.06E-03
9561,896211499.7,4.08E-03
9562,885350096.8,4.03E-03
9563,890144443.9,4.05E-03
9564,884631849.8,4.03E-03
9565,885096087.4,4.03E-03
9566,880947539.7,4.01E-03
9567,880444674.7,4.01E-03
9568,868845748.8,3.95E-03
9569,871276672.9,3.96E-03
9570,874970714.4,3.98E-03
9571,872952539,3.97E-03
9572,862652333.5,3.92E-03
9573,865928679.4,3.94E-03
9574,860967957.5,3.91E-03
9575,857429092.4,3.90E-03
9576,857489686.1,3.90E-03
9577,854407859.3,3.89E-03
9578,856093362.1,3.89E-03
9579,854407850.9,3.89E-03
9580,857409019.6,3.90E-03
9581,857387572.1,3.90E-03
9582,862613220.6,3.92E-03
9583,860947719.5,3.91E-03
9584,857432723.1,3.90E-03
9585,868784992.7,3.95E-03
9586,865868782.9,3.94E-03
9587,864971484.6,3.94E-03
9588,874864746.5,3.98E-03
9589,871236023.1,3.96E-03
9590,872698068.5,3.97E-03
9591,876339182.2,3.99E-03
9592,880335079,4.01E-03
9593,879552017.7,4.00E-03
9594,823393820.7,3.80E-03
9595,865320790.1,3.99E-03
9596,813448024.3,3.75E-03
9597,791189200.3,3.65E-03
9598,778518552.6,3.59E-03
9599,767357920.4,3.54E-03
9600,753565307.3,3.48E-03
9601,797780227.2,3.68E-03
9602,749749251.5,3.46E-03
9603,735136763.3,3.39E-03
9604,738061155.4,3.40E-03
9605,722258911.7,3.33E-03
9606,760906879.6,3.51E-03
9607,714519368.2,3.30E-03
9608,732163032.1,3.38E-03
9609,751189971,3.46E-03
9610,749509686.4,3.46E-03
9611,722258878.3,3.33E-03
9612,738039470.6,3.40E-03
9613,760906846.2,3.51E-03
9614,734940578.7,3.39E-03
9615,766682316.3,3.54E-03
9616,894789528.6,4.12E-03
9617,913462847.3,4.21E-03
9618,864727765.2,3.99E-03
9619,863973946.4,3.98E-03
9620,898082490.5,4.14E-03
9621,904247131.9,4.17E-03
9622,893867961.3,4.12E-03
9623,892371234.8,4.11E-03
9624,894350633.4,4.12E-03
9625,889214906.4,4.09E-03
9626,898019708.5,4.13E-03
9627,890801528.3,4.10E-03
9628,903857007.8,4.15E-03
9629,895204429.7,4.12E-03
9630,909633839.9,4.18E-03
9631,899848711.1,4.13E-03
9632,913467818,4.20E-03
9633,912360647.8,4.19E-03
9634,902416960,4.14E-03
9635,923020549.8,4.24E-03
9636,908893827.2,4.17E-03
9637,900459376,4.13E-03
9638,892651074.4,4.09E-03
9639,898599867.8,4.12E-03
9640,882379191.3,4.04E-03
9641,873089427.2,4.00E-03
9642,886780186.4,4.06E-03
9643,890123899.6,4.07E-03
9644,875154959.9,4.01E-03
9645,905083712,4.14E-03
9646,887464308.5,4.06E-03
9647,917841351.4,4.20E-03
9648,902615761.1,4.13E-03
9649,923219632.7,4.22E-03
9650,913659335.4,4.18E-03
9651,934700788.6,4.27E-03
9652,921670459.2,4.21E-03
9653,918254918,4.20E-03
9654,916114244.2,4.18E-03
9655,917482890.2,4.19E-03
9656,909061949.2,4.15E-03
9657,913311159.7,4.17E-03
9658,902068733,4.11E-03
9659,907383953.6,4.14E-03
9660,895633462.6,4.08E-03
9661,900909875.7,4.11E-03
9662,889892690.4,4.05E-03
9663,894561244.1,4.07E-03
9664,884844334,4.03E-03
9665,888712347,4.04E-03
9666,880672044.2,4.00E-03
9667,883705401.2,4.02E-03
9668,880637061.3,4.00E-03
9669,877387280.9,3.99E-03
9670,876884936.5,3.99E-03
9671,868360644.7,3.95E-03
9672,869687445.5,3.95E-03
9673,872710730.9,3.97E-03
9674,864246212.2,3.93E-03
9675,865769338.4,3.93E-03
9676,862346974.7,3.92E-03
9677,860929196.9,3.91E-03
9678,859076372,3.90E-03
9679,859160273,3.90E-03
9680,859076363.7,3.90E-03
9681,860929222,3.91E-03
9682,860000150.2,3.91E-03
9683,864226850.2,3.93E-03
9684,862347008.2,3.92E-03
9685,868342340.6,3.95E-03
9686,865750158.3,3.93E-03
9687,872710285.2,3.97E-03
9688,869666720.3,3.95E-03
9689,876883986.9,3.99E-03
9690,873665756.2,3.97E-03
9691,880650839.9,4.00E-03
9692,877347185.2,3.99E-03
9693,880881098.4,4.01E-03
9694,884800089.9,4.03E-03
9695,880594899.9,4.00E-03
9696,883683693.1,4.02E-03
9697,889892632.9,4.05E-03
9698,888712124.7,4.04E-03
9699,885028266,4.03E-03
9700,894541617.6,4.07E-03
9701,895635313.5,4.08E-03
9702,907383904,4.14E-03
9703,902047882.8,4.11E-03
9704,909061890.8,4.15E-03
9705,916114359.3,4.18E-03
9706,917482840.7,4.19E-03
9707,921670400.8,4.21E-03
9708,886736635.2,4.06E-03
9709,873046058.3,4.00E-03
9710,882400619.1,4.04E-03
9711,886412961.4,4.06E-03
9712,898578149.8,4.12E-03
9713,881196434.6,4.04E-03
9714,902520045.5,4.14E-03
9715,892586045.9,4.09E-03
9716,908828789.7,4.17E-03
9717,920195445.3,4.22E-03
9718,902373591.1,4.14E-03
9719,909612295.4,4.18E-03
9720,912317270,4.19E-03
9721,894315064.9,4.12E-03
9722,890782769.2,4.10E-03
9723,898000767,4.13E-03
9724,893854746.8,4.12E-03
9725,889198229.8,4.09E-03
9726,898348422.8,4.14E-03
9727,892161530.1,4.11E-03
9728,895397348.1,4.13E-03
9729,904360136.2,4.17E-03
9730,913526215.8,4.21E-03
9731,865094829.7,3.99E-03
9732,922935825.4,4.25E-03
9733,949773049,4.38E-03
9734,905143863.9,4.17E-03
9735,898547936.5,4.14E-03
9736,887126941.6,4.09E-03
9737,887724253.5,4.09E-03
9738,873052050.1,4.02E-03
9739,885690064,4.07E-03
9740,873675754.6,4.02E-03
9741,887986770.1,4.08E-03
9742,878998395.9,4.04E-03
9743,891195785.9,4.10E-03
9744,885515269.8,4.07E-03
9745,892631657.6,4.10E-03
9746,889523438,4.09E-03
9747,890516902.9,4.09E-03
9748,888422523.7,4.08E-03
9749,884219746.9,4.06E-03
9750,880930440.9,4.04E-03
9751,875252202.6,4.01E-03
9752,868212474.2,3.98E-03
9753,865867104.6,3.96E-03
9754,867510063.2,3.97E-03
9755,846731728.4,3.88E-03
9756,872493807.2,3.99E-03
9757,849689614.9,3.89E-03
9758,884992713.5,4.05E-03
9759,863433676.9,3.95E-03
9760,898430274.5,4.11E-03
9761,882772878.7,4.04E-03
9762,908714371.6,4.15E-03
9763,901039855.1,4.12E-03
9764,914067349.1,4.17E-03
9765,913729565.5,4.17E-03
9766,914681194,4.18E-03
9767,919387860.9,4.20E-03
9768,911635940.6,4.16E-03
9769,918790845.8,4.19E-03
9770,906250053,4.13E-03
9771,913732283,4.17E-03
9772,899840954.2,4.10E-03
9773,906202086.6,4.13E-03
9774,893362364.6,4.07E-03
9775,897907727.7,4.09E-03
9776,887576017.2,4.04E-03
9777,890151911,4.05E-03
9778,883021148.3,4.01E-03
9779,884017967.5,4.02E-03
9780,879950726,4.00E-03
9781,880784386.3,4.00E-03
9782,880522167.3,4.00E-03
9783,877328729.4,3.99E-03
9784,878854285,3.99E-03
9785,874168364.2,3.97E-03
9786,875734809.8,3.98E-03
9787,870643775.7,3.96E-03
9788,873667061,3.97E-03
9789,871862451.6,3.96E-03
9790,867075347.2,3.94E-03
9791,867687725.5,3.94E-03
9792,863871836.3,3.92E-03
9793,863727687.4,3.92E-03
9794,861420167.2,3.91E-03
9795,860455900.3,3.91E-03
9796,860086654.1,3.91E-03
9797,860086645.7,3.91E-03
9798,857528247.1,3.89E-03
9799,863871878,3.92E-03
9800,861420192.2,3.91E-03
9801,860455933.7,3.91E-03
9802,867075405.7,3.94E-03
9803,863727564,3.92E-03
9804,870643677.4,3.96E-03
9805,867687618.8,3.94E-03
9806,874127739.8,3.97E-03
9807,871862361.6,3.96E-03
9808,877289509.9,3.99E-03
9809,875694367.2,3.98E-03
9810,879931274,4.00E-03
9811,878833783.5,3.99E-03
9812,883000663.3,4.01E-03
9813,880523177,4.00E-03
9814,880763728,4.00E-03
9815,887576844.6,4.04E-03
9816,884017935.9,4.02E-03
9817,893342399.8,4.07E-03
9818,890130913.7,4.05E-03
9819,899820295.1,4.10E-03
9820,897908737.1,4.09E-03
9821,906250012.3,4.13E-03
9822,900889034.3,4.11E-03
9823,906202054.7,4.13E-03
9824,911635899.8,4.16E-03
9825,913753910.7,4.17E-03
9826,908735817.1,4.15E-03
9827,914088968.1,4.18E-03
9828,918276528.2,4.20E-03
9829,913772679.4,4.17E-03
9830,898473379.6,4.11E-03
9831,913680945.6,4.18E-03
9832,901104628.7,4.12E-03
9833,885035818.6,4.05E-03
9834,902658857.4,4.13E-03
9835,882837652.3,4.04E-03
9836,872537085.8,3.99E-03
9837,887507404.8,4.06E-03
9838,863520110.2,3.95E-03
9839,865888550.1,3.96E-03
9840,875219889.4,4.01E-03
9841,849732728.8,3.89E-03
9842,875208842.5,4.01E-03
9843,867509848.9,3.97E-03
9844,854596537.3,3.92E-03
9845,884176386.8,4.06E-03
9846,868147289.7,3.98E-03
9847,890451883.2,4.09E-03
9848,900394521,4.13E-03
9849,880865429.9,4.04E-03
9850,891152599.3,4.10E-03
9851,892588471.1,4.10E-03
9852,899827175.4,4.13E-03
9853,889458600.6,4.09E-03
9854,885668537.1,4.07E-03
9855,887965243.2,4.08E-03
9856,878955218.1,4.04E-03
9857,887511086.7,4.09E-03
9858,873654236.5,4.02E-03
9859,898185408,4.14E-03
9860,872795572.7,4.02E-03
9861,922503962.2,4.25E-03
9862,886782957.8,4.09E-03
9863,949728440,4.38E-03
9864,905272488.8,4.17E-03
9865,901277982.9,4.16E-03
9866,961616580.5,4.44E-03
9867,989878334.8,4.57E-03
9868,813219599.7,3.75E-03
9869,885340125.1,4.09E-03
9870,768576400.3,3.55E-03
9871,833384351.3,3.85E-03
9872,740899310.2,3.42E-03
9873,805152751.1,3.72E-03
9874,721349061.2,3.33E-03
9875,785001722.7,3.62E-03
9876,707672681.8,3.27E-03
9877,770852717.4,3.56E-03
9878,698743053,3.22E-03
9879,761015672.5,3.51E-03
9880,694299946.2,3.20E-03
9881,755187126.8,3.49E-03
9882,694299937.8,3.20E-03
9883,711939549.5,3.28E-03
9884,753237070.1,3.48E-03
9885,698743027.9,3.22E-03
9886,714519351.5,3.30E-03
9887,755165450.4,3.49E-03
9888,707694299.7,3.27E-03
9889,761037298.8,3.51E-03
9890,721349020,3.33E-03
9891,770831007.6,3.56E-03
9892,740572239.9,3.42E-03
9893,753107749.4,3.47E-03
9894,785196679.8,3.62E-03
9895,767704871.3,3.54E-03
9896,777756909.5,3.59E-03
9897,805691921.1,3.72E-03
9898,812610035.3,3.75E-03
9899,811859270.6,3.74E-03
9900,833251047.9,3.85E-03
9901,900997028,4.16E-03
9902,885036790,4.08E-03
9903,961227353.4,4.44E-03
9904,989423842.7,4.56E-03
9905,821915074.5,3.79E-03
9906,790275253.7,3.64E-03
9907,858303318.8,3.90E-03
9908,860000133.5,3.91E-03
9909,858303302.1,3.90E-03
9910,876383286.2,3.99E-03
9911,857387555.4,3.90E-03
9912,732163023.7,3.38E-03
9913,747871588.6,3.45E-03
9914,879727815.9,4.00E-03
9915,877363506.5,3.99E-03
9916,766902900.4,3.53E-03
9917,774040206.9,3.57E-03
9918,868885601.6,3.95E-03
9919,895182894,4.12E-03
9920,885471918.5,4.07E-03
9921,877730953.2,4.00E-03
9922,826753164,3.81E-03
9923,787170866.9,3.63E-03
9924,859793243,3.91E-03
9925,913311110.2,4.17E-03
9926,914702813,4.18E-03
9927,918812473.6,4.19E-03
9928,843452747.1,3.88E-03
9929,903857123,4.15E-03
9930,836000316.9,3.81E-03
9931,919409488.6,4.20E-03
9932,888357512.8,4.08E-03
9933,831510681.9,3.79E-03
9934,874332365.6,3.98E-03
9935,926874278.7,4.26E-03
9936,853599853.4,3.89E-03
9937,913467924.3,4.20E-03
9938,789825245.3,3.64E-03
9939,793466690.1,3.65E-03
9940,867599840.9,3.95E-03
9941,923219574.3,4.22E-03
9942,917862952.7,4.20E-03
9943,881196484.1,4.04E-03
9944,854639888.6,3.92E-03
9945,942147289.9,4.33E-03
9946,905126973,4.14E-03
9947,926523482.1,4.24E-03
9948,846753182.6,3.88E-03
9949,833838120.7,3.80E-03
9950,804465808.6,3.70E-03
9951,816659381.8,3.76E-03
9952,828312206.9,3.81E-03
9953,848672041.1,3.90E-03
9954,804674826.3,3.70E-03
9955,890210479.9,4.07E-03
9956,898528168.1,4.13E-03
9957,870344297.5,4.00E-03
9958,816849350.5,3.76E-03
9959,791018946,3.64E-03
9960,877434672.6,4.00E-03
9961,902844660.9,4.14E-03
9962,961623469.3,4.40E-03
9963,894378823,4.11E-03
9964,837183013.1,3.85E-03
9965,819618861.6,3.77E-03
9966,929137381.2,4.26E-03
9967,924140464.6,4.24E-03
9968,941537186.9,4.30E-03
9969,849483613.7,3.90E-03
9970,895926590.1,4.12E-03
9971,866215917.9,3.98E-03
9972,803183744.8,3.69E-03
9973,821016991.8,3.77E-03
9974,965232764.5,4.41E-03
9975,954294734.2,4.36E-03
9976,989334606.9,4.53E-03
9977,781141939.9,3.59E-03
9978,779840456.7,3.58E-03
9979,808526094,3.68E-03
9980,827867425.6,3.78E-03
9981,991249895.5,4.53E-03
9982,896499333,4.12E-03
9983,848647081,3.90E-03
9984,761103070.7,3.50E-03
9985,797664333.1,3.67E-03
9986,759809538.3,3.49E-03
9987,758701951.3,3.49E-03
9988,854635900.5,3.90E-03
9989,901228059,4.11E-03
9990,773353805.7,3.52E-03
9991,749810761.1,3.41E-03
9992,827246174.8,3.77E-03
9993,902179050.3,4.13E-03
9994,895193391,4.10E-03
9995,1023791023,4.69E-03
9996,736853959.5,3.35E-03
9997,995667634.4,4.57E-03
9998,1021974835,4.69E-03
9999,936100040.6,4.28E-03
10000,978409938.5,4.47E-03
10001,871413700.2,3.98E-03
10002,953345803.4,4.38E-03
10003,769172222.1,3.51E-03
10004,840700726.9,3.84E-03
10005,952718413.3,4.38E-03
10006,871292578.4,4.00E-03
10007,823443102.8,3.78E-03
10008,922504012,4.23E-03
10009,983694981.1,4.51E-03
10010,719786558,3.31E-03
10011,941835580.5,4.33E-03
10012,1042332058,4.79E-03
10013,923549512.1,4.23E-03
10014,978596698.9,4.48E-03
10015,773004893.8,3.52E-03
10016,714685881.3,3.25E-03
10017,678217930.9,3.09E-03
10018,873837465.7,3.99E-03
10019,847907300.3,3.87E-03
10020,899821313.6,4.12E-03
10021,900217875.5,4.12E-03
10022,903020440.6,4.14E-03
10023,922932927.7,4.23E-03
10024,1068665635,4.91E-03
10025,1033074904,4.74E-03
10026,718658147.3,3.30E-03
10027,730021332.3,3.35E-03
10028,1045817405,4.80E-03
10029,933771796,4.29E-03
10030,954984912.6,4.37E-03
10031,673756251.4,3.07E-03
10032,977018279,4.47E-03
10033,907160570.9,4.16E-03
10034,1078479454,4.94E-03
10035,1026564671,4.70E-03
10036,778406631.4,3.57E-03
10037,852339193.4,3.91E-03
10038,711343776.3,3.27E-03
10039,644814302.8,2.96E-03
10040,1019483666,4.67E-03
10041,997275895.7,4.56E-03
10042,1022441177,4.68E-03
10043,1066465944,4.88E-03
10044,803884569.7,3.69E-03
10045,961819862.6,4.42E-03
10046,1071177519,4.92E-03
10047,1021192411,4.69E-03
10048,1130116444,5.19E-03
10049,1074679990,4.92E-03
10050,1062343064,4.88E-03
10051,929066515.6,4.25E-03
10052,1044286112,4.78E-03
10053,958944773.9,4.40E-03
10054,1080183017,4.96E-03
10055,1069704814,4.90E-03
10056,938726847.7,4.30E-03
10057,745314082.7,3.40E-03
10058,940674029.2,4.30E-03
10059,637338624.8,2.90E-03
10060,579199122.7,2.63E-03
10061,753144978.7,3.43E-03
10062,638875990,2.91E-03
10063,956206078.4,4.37E-03
10064,1118749843,5.13E-03
10065,1081194896,4.96E-03
10066,1197789385,5.49E-03
10067,964223036.2,4.42E-03
10068,912199285.1,4.18E-03
10069,1028594800,4.72E-03
10070,681469219.1,3.13E-03
10071,1071388192,4.91E-03
10072,755376445.7,3.47E-03
10073,656127195.6,3.01E-03
10074,774608004.6,3.53E-03
10075,1160175723,5.32E-03
10076,1147291269,5.27E-03
10077,1059951240,4.86E-03
10078,1201648472,5.52E-03
10079,614898098.4,2.82E-03
10080,712220660.8,3.27E-03
10081,558675239.1,2.56E-03
10082,970105900,4.45E-03
10083,1083636456,4.97E-03
10084,580834879.4,2.64E-03
10085,481987557.9,2.18E-03
10086,841929659.4,3.84E-03
10087,899742314.7,4.11E-03
10088,1150480140,5.27E-03
10089,1004985378,4.61E-03
10090,574306235.3,2.61E-03
10091,658499932.7,3.00E-03
10092,768888486.7,3.51E-03
10093,970013431,4.44E-03
10094,1143786203,5.25E-03
10095,976616656.1,4.48E-03
10096,1175482801,5.40E-03
10097,1146683509,5.26E-03
10098,1276565900,5.86E-03
10099,616620253.7,2.82E-03
10100,870600093.1,4.00E-03
10101,1129362711,5.18E-03
10102,1118486466,5.13E-03
10103,559567812.6,2.56E-03
10104,1257930691,5.77E-03
10105,1321427431,6.06E-03
10106,1166077849,5.34E-03
10107,491289945.3,2.23E-03
10108,465569304.6,2.11E-03
10109,332726013,1.49E-03
10110,549772893.2,2.50E-03
10111,410526837.7,1.85E-03
10112,728219233.8,3.32E-03
10113,537006942.8,2.44E-03
10114,721890105.2,3.29E-03
10115,1208242787,5.54E-03
10116,1272592676,5.84E-03
10117,1260429281,5.78E-03
10118,1042891136,4.78E-03
10119,1119607946,5.14E-03
10120,1214085999,5.58E-03
10121,787269656.8,3.61E-03
10122,954683892.9,4.38E-03
10123,440616055.7,2.01E-03
10124,586142776.6,2.68E-03
10125,288066041.4,1.31E-03
10126,1259256901,5.78E-03
10127,1309784111,6.01E-03
10128,1397672605,6.42E-03
10129,1379603717,6.34E-03
10130,444195151.4,2.03E-03
10131,1298944655,5.96E-03
10132,1604119138,7.37E-03
10133,1916913973,8.82E-03
10134,1278993728,5.87E-03
10135,1600351592,7.35E-03
10136,1358111780,6.23E-03
10137,1504129959,6.91E-03
10138,1229575803,5.64E-03
10139,1241237922,5.69E-03
10140,992827697.8,4.54E-03
10141,866331793.1,3.96E-03
10142,708399276.2,3.23E-03
10143,531427284.3,2.41E-03
10144,349045097.7,1.57E-03
10145,463413274.3,2.10E-03
10146,185653158.1,8.14E-04
10147,401758721.6,1.81E-03
10148,277689966.7,1.24E-03
10149,491619573.5,2.23E-03
10150,397776158,1.79E-03
10151,502011123.6,2.28E-03
10152,530698637.8,2.41E-03
10153,429090583.3,1.94E-03
10154,725631309.7,3.31E-03
10155,365632973.9,1.65E-03
10156,998586059.4,4.57E-03
10157,713108347.9,3.25E-03
10158,1267094122,5.81E-03
10159,1128157187,5.17E-03
10160,1324714791,6.08E-03
10161,1457913804,6.69E-03
10162,1216714232,5.58E-03
10163,1566932003,7.20E-03
10164,1241823364,5.70E-03
10165,1704049609,7.83E-03
10166,1362410847,6.26E-03
10167,1856878677,8.54E-03
10168,1416432918,6.51E-03
10169,1881284671,8.65E-03
10170,1419004314,6.52E-03
10171,1763351725,8.11E-03
10172,1324068874,6.09E-03
10173,1576838732,7.25E-03
10174,1199461164,5.51E-03
10175,1208722995,5.55E-03
10176,1049065841,4.82E-03
10177,900242552,4.13E-03
10178,753507209.5,3.46E-03
10179,562285331.8,2.57E-03
10180,433581451.3,1.98E-03
10181,478484708.5,2.19E-03
10182,220841741.2,9.97E-04
10183,464842216.3,2.12E-03
10184,297402272.4,1.35E-03
10185,416937527.6,1.90E-03
10186,698163332.7,3.20E-03
10187,515183695.7,2.36E-03
10188,1020956286,4.69E-03
10189,618815538.5,2.83E-03
10190,1073270883,4.93E-03
10191,653091056.8,2.99E-03
10192,1088558571,5.00E-03
10193,853308843.6,3.91E-03
10194,1213247271,5.57E-03
10195,1157979486,5.32E-03
10196,1377347384,6.33E-03
10197,1487784480,6.84E-03
10198,1518008835,6.98E-03
10199,1778446877,8.18E-03
10200,1691951786,7.78E-03
10201,2187347997,1.01E-02
10202,1992477454,9.17E-03
10203,945184584.5,4.36E-03
10204,1257408922,5.81E-03
10205,794194928.5,3.67E-03
10206,905612350.1,4.18E-03
10207,754406097.3,3.48E-03
10208,871151801.1,4.02E-03
10209,709678858,3.28E-03
10210,850228554.7,3.93E-03
10211,686914538.5,3.17E-03
10212,834590271.2,3.85E-03
10213,669890035.2,3.09E-03
10214,824106992.4,3.80E-03
10215,658042196.3,3.04E-03
10216,817370839,3.77E-03
10217,650179739.4,3.00E-03
10218,814013596.4,3.76E-03
10219,645522915.7,2.98E-03
10220,814013604.7,3.76E-03
10221,644006746.1,2.97E-03
10222,817370864.1,3.77E-03
10223,645522932.4,2.98E-03
10224,824107034.2,3.80E-03
10225,650158113.1,3.00E-03
10226,834417052.2,3.85E-03
10227,658063906.2,3.04E-03
10228,849167305.4,3.92E-03
10229,669673505.2,3.09E-03
10230,869852312,4.02E-03
10231,686481428.4,3.17E-03
10232,905417521.6,4.18E-03
10233,709743937.4,3.28E-03
10234,945574584.2,4.37E-03
10235,754601151.4,3.48E-03
10236,1257712300,5.81E-03
10237,794216721.9,3.67E-03
10238,1286139341,5.94E-03
10239,1400341329,6.47E-03
10240,945490650.3,4.36E-03
10241,1058929937,4.89E-03
10242,869568507.7,4.01E-03
10243,877156686.2,4.04E-03
10244,861401972.6,3.97E-03
10245,864411937.6,3.98E-03
10246,858940284.3,3.95E-03
10247,854504003.3,3.93E-03
10248,866961362.5,3.99E-03
10249,861680180.3,3.96E-03
10250,876459637.5,4.03E-03
10251,871631226.3,4.01E-03
10252,883776878.6,4.06E-03
10253,881393061.6,4.05E-03
10254,885228857,4.06E-03
10255,886699075.6,4.07E-03
10256,878753738.1,4.03E-03
10257,884556934.7,4.06E-03
10258,864843621.1,3.97E-03
10259,873704997.9,4.01E-03
10260,847543140.5,3.88E-03
10261,856280979.7,3.93E-03
10262,833845424,3.82E-03
10263,838388399.3,3.84E-03
10264,830598055.5,3.80E-03
10265,828192784,3.79E-03
10266,840710894.4,3.85E-03
10267,831634613.7,3.80E-03
10268,861291954.8,3.94E-03
10269,848723606.2,3.88E-03
10270,885460224.9,4.05E-03
10271,873491059.2,3.99E-03
10272,906135070.4,4.14E-03
10273,897775783.6,4.10E-03
10274,919090423.5,4.20E-03
10275,915317610.3,4.18E-03
10276,923519496.3,4.22E-03
10277,923816100.8,4.22E-03
10278,920911601.3,4.20E-03
10279,924045277.3,4.22E-03
10280,913710291.4,4.17E-03
10281,918340047.4,4.19E-03
10282,904295355.6,4.12E-03
10283,909339074.9,4.14E-03
10284,894701762.8,4.07E-03
10285,899271745.6,4.10E-03
10286,886597308.8,4.03E-03
10287,889935292.6,4.05E-03
10288,881542705.5,4.01E-03
10289,882933053,4.02E-03
10290,880233145.2,4.00E-03
10291,879891238.6,4.00E-03
10292,880472655,4.00E-03
10293,880400918.2,4.00E-03
10294,879686335.5,4.00E-03
10295,880566063,4.00E-03
10296,877237426.1,3.98E-03
10297,879045743.6,3.99E-03
10298,873428121.5,3.97E-03
10299,875689209.9,3.98E-03
10300,868906303.1,3.95E-03
10301,871296308.5,3.96E-03
10302,864340471.2,3.92E-03
10303,866536060.1,3.93E-03
10304,860334494.1,3.91E-03
10305,862055478.7,3.91E-03
10306,857340622.1,3.89E-03
10307,858393106.5,3.90E-03
10308,855746820.7,3.88E-03
10309,856001888,3.89E-03
10310,855746812.3,3.88E-03
10311,855161663.7,3.88E-03
10312,857340770.5,3.89E-03
10313,856001871.2,3.89E-03
10314,860334625.8,3.91E-03
10315,858393246.6,3.90E-03
10316,864340412.7,3.92E-03
10317,862055428.6,3.91E-03
10318,868906227.9,3.95E-03
10319,866535993.2,3.93E-03
10320,873406369.9,3.97E-03
10321,871296398.4,3.96E-03
10322,877237317.5,3.98E-03
10323,875689283.2,3.98E-03
10324,879686383.6,4.00E-03
10325,879045800.1,3.99E-03
10326,880472686.5,4.00E-03
10327,880565929.3,4.00E-03
10328,880233168.3,4.00E-03
10329,880422601,4.00E-03
10330,881542728.6,4.01E-03
10331,879869602,4.00E-03
10332,886597331.9,4.03E-03
10333,882933076.1,4.02E-03
10334,894701785.9,4.07E-03
10335,889956975.3,4.05E-03
10336,904295378.7,4.12E-03
10337,899271768.7,4.10E-03
10338,913710314.5,4.17E-03
10339,909339098,4.14E-03
10340,920911624.4,4.20E-03
10341,918340070.5,4.19E-03
10342,923497859.7,4.22E-03
10343,924023814.2,4.22E-03
10344,919047127.2,4.20E-03
10345,923772804.5,4.22E-03
10346,906070288,4.14E-03
10347,915274487.5,4.18E-03
10348,885373782.8,4.05E-03
10349,897689341.5,4.10E-03
10350,861205512.7,3.94E-03
10351,873404617.1,3.99E-03
10352,840646285.5,3.85E-03
10353,848615504.4,3.88E-03
10354,830554932.8,3.80E-03
10355,831548171.6,3.80E-03
10356,833867453.9,3.82E-03
10357,828192980.6,3.79E-03
10358,847608316.1,3.88E-03
10359,838453748.5,3.84E-03
10360,864930456.5,3.97E-03
10361,856367815.1,3.93E-03
10362,878862059.7,4.03E-03
10363,873813319.4,4.01E-03
10364,885315518.8,4.07E-03
10365,884643596.5,4.06E-03
10366,883841707.2,4.06E-03
10367,886785737.4,4.07E-03
10368,876524639.7,4.03E-03
10369,881458063.8,4.05E-03
10370,866982871.8,3.99E-03
10371,871674395.2,4.01E-03
10372,859005112.9,3.95E-03
10373,861701689.5,3.96E-03
10374,861618419,3.97E-03
10375,854590491.6,3.93E-03
10376,869330048.7,4.01E-03
10377,864758342.1,3.98E-03
10378,944862403.8,4.36E-03
10379,876376839.2,4.04E-03
10380,1285770959,5.93E-03
10381,1058409815,4.88E-03
10382,1400211220,6.46E-03
10383,2218426449,1.02E-02
10384,2500106864,1.15E-02
10385,2523248691,1.16E-02
10386,1825620227,8.39E-03
10387,2093186977,9.63E-03
10388,1387375284,6.37E-03
10389,1694385913,7.79E-03
10390,878082033.2,4.01E-03
10391,1159999500,5.32E-03
10392,405014642.6,1.83E-03
10393,618965062.8,2.82E-03
10394,286489003.3,1.28E-03
10395,212036225.3,9.38E-04
10396,516148069,2.34E-03
10397,466265522.7,2.11E-03
10398,707742644.7,3.22E-03
10399,746703295.6,3.41E-03
10400,715950274.6,3.26E-03
10401,873445590,3.99E-03
10402,533343943.3,2.42E-03
10403,764290955,3.49E-03
10404,264048346,1.18E-03
10405,489375703.5,2.22E-03
10406,353138644.7,1.59E-03
10407,176469624,7.73E-04
10408,842692001.7,3.85E-03
10409,579781985.1,2.64E-03
10410,1319045903,6.05E-03
10411,1137108146,5.21E-03
10412,1700217229,7.81E-03
10413,1591558033,7.31E-03
10414,2054351022,9.45E-03
10415,1943008770,8.93E-03
10416,2319237200,1.07E-02
10417,2339560665,1.08E-02
10418,2375863259,1.09E-02
10419,2501646133,1.15E-02
10420,2228230169,1.03E-02
10421,2452324234,1.13E-02
10422,1921181632,8.84E-03
10423,2182944806,1.00E-02
10424,1461459882,6.72E-03
10425,1793871218,8.25E-03
10426,909450415.1,4.17E-03
10427,1205642248,5.54E-03
10428,413380341.2,1.88E-03
10429,629518501.7,2.88E-03
10430,287223612.9,1.30E-03
10431,210409519.9,9.47E-04
10432,509724996.9,2.33E-03
10433,469682793.5,2.15E-03
10434,660913284.1,3.03E-03
10435,736120839.3,3.38E-03
10436,634706109.6,2.91E-03
10437,792747521.3,3.64E-03
10438,435798418.9,1.99E-03
10439,683423699.7,3.13E-03
10440,250898250.3,1.13E-03
10441,360537744.8,1.64E-03
10442,433090320.2,1.98E-03
10443,214157601.9,9.65E-04
10444,922706679,4.23E-03
10445,647128187,2.96E-03
10446,1432504200,6.59E-03
10447,1217274731,5.59E-03
10448,1888866272,8.69E-03
10449,1728243611,7.95E-03
10450,2252924661,1.04E-02
10451,2185547634,1.01E-02
10452,2487846452,1.15E-02
10453,2673631857,1.23E-02
10454,2497381606,1.15E-02
10455,2398019449,1.10E-02
10456,2617252264,1.20E-02
10457,2523248726,1.16E-02
10458,2696776136,1.24E-02
10459,1961918501,9.02E-03
10460,2167533274,9.97E-03
10461,2093187011,9.63E-03
10462,1466974405,6.73E-03
10463,1738866282,7.99E-03
10464,1694385947,7.79E-03
10465,900875406.8,4.12E-03
10466,1172053587,5.37E-03
10467,1159999535,5.32E-03
10468,425981456.4,1.93E-03
10469,596139943.5,2.71E-03
10470,618965097.3,2.82E-03
10471,391828379.3,1.77E-03
10472,193623948.7,8.53E-04
10473,212036259.8,9.38E-04
10474,696875055.9,3.18E-03
10475,540455138,2.45E-03
10476,466265557.2,2.11E-03
10477,912472000.5,4.17E-03
10478,842739376.1,3.85E-03
10479,746703330.1,3.41E-03
10480,921828114.3,4.21E-03
10481,979247064.5,4.48E-03
10482,873445624.5,3.99E-03
10483,720352759.1,3.28E-03
10484,861626616.5,3.94E-03
10485,764290989.5,3.49E-03
10486,401834275.7,1.81E-03
10487,568785302.6,2.58E-03
10488,489375738,2.22E-03
10489,403107775.4,1.82E-03
10490,182903518.1,8.03E-04
10491,176467492.6,7.73E-04
10492,874148554.7,4.00E-03
10493,557997224.8,2.54E-03
10494,579782019.6,2.64E-03
10495,1409603436,6.47E-03
10496,1154880563,5.29E-03
10497,1137108181,5.21E-03
10498,1834328569,8.43E-03
10499,1639005085,7.53E-03
10500,1591558067,7.31E-03
10501,2228205248,1.03E-02
10502,2010791315,9.25E-03
10503,1943008805,8.93E-03
10504,2521970836,1.16E-02
10505,2430531708,1.12E-02
10506,2339560699,1.08E-02
10507,2578127954,1.19E-02
10508,2599971230,1.20E-02
10509,2501646167,1.15E-02
10510,2407075161,1.11E-02
10511,2543709730,1.17E-02
10512,2452324269,1.13E-02
10513,2055743124,9.46E-03
10514,2256131828,1.04E-02
10515,2182944840,1.00E-02
10516,1538088313,7.07E-03
10517,1839270081,8.46E-03
10518,1793871253,8.25E-03
10519,925735171.8,4.25E-03
10520,1218471887,5.60E-03
10521,1205642282,5.54E-03
10522,426556373.3,1.94E-03
10523,604389473.5,2.77E-03
10524,629518536.2,2.88E-03
10525,392833869,1.79E-03
10526,189190687.8,8.49E-04
10527,210409554.4,9.47E-04
10528,696023507.7,3.19E-03
10529,547307511.6,2.50E-03
10530,469682828,2.15E-03
10531,867890230.6,3.98E-03
10532,833961157.4,3.83E-03
10533,736120873.8,3.38E-03
10534,841401480.2,3.86E-03
10535,897304770.9,4.12E-03
10536,792747555.8,3.64E-03
10537,608125912.9,2.78E-03
10538,780051075.5,3.58E-03
10539,683423734.2,3.13E-03
10540,323780550.3,1.47E-03
10541,420076800.2,1.92E-03
10542,360537779.3,1.64E-03
10543,428202349.2,1.95E-03
10544,159157028.3,7.11E-04
10545,214157636.4,9.65E-04
10546,941720902.9,4.32E-03
10547,623904863.9,2.86E-03
10548,647128221.5,2.96E-03
10549,1513052861,6.96E-03
10550,1230493897,5.65E-03
10551,1217274765,5.59E-03
10552,2024965428,9.32E-03
10553,1774184139,8.16E-03
10554,1728243645,7.95E-03
10555,2430037052,1.12E-02
10556,2258301463,1.04E-02
10557,2185547668,1.01E-02
10558,2587467347,1.19E-02
10559,2683180569,1.24E-02
10560,2497381641,1.15E-02
10561,2386757443,1.10E-02
10562,2617252252,1.20E-02
10563,2688109821,1.24E-02
10564,1944486261,8.94E-03
10565,2167533262,9.97E-03
10566,1443955182,6.63E-03
10567,1738866270,7.99E-03
10568,867349675,3.96E-03
10569,1172053576,5.37E-03
10570,363796492,1.64E-03
10571,596139932,2.71E-03
10572,342266498.9,1.54E-03
10573,193623937.2,8.53E-04
10574,686340108.5,3.13E-03
10575,540455126.5,2.45E-03
10576,909515860.1,4.16E-03
10577,842739364.6,3.85E-03
10578,919045251.4,4.20E-03
10579,979247053,4.48E-03
10580,710077727.9,3.24E-03
10581,861626605,3.94E-03
10582,349889830.1,1.57E-03
10583,568785291.1,2.58E-03
10584,337803469.4,1.52E-03
10585,182903506.6,8.03E-04
10586,838738083.3,3.83E-03
10587,557997213.3,2.54E-03
10588,1384288286,6.35E-03
10589,1154880552,5.29E-03
10590,1815488623,8.34E-03
10591,1639005073,7.53E-03
10592,2213044672,1.02E-02
10593,2010791304,9.25E-03
10594,2508539564,1.15E-02
10595,2430531697,1.12E-02
10596,2565558906,1.18E-02
10597,2599971219,1.20E-02
10598,2392770735,1.10E-02
10599,2543709719,1.17E-02
10600,2039662256,9.39E-03
10601,2256131817,1.04E-02
10602,1519648449,6.99E-03
10603,1839270069,8.46E-03
10604,897118552.9,4.12E-03
10605,1218471875,5.60E-03
10606,367014410.9,1.67E-03
10607,604389462,2.77E-03
10608,343649747.4,1.56E-03
10609,189190676.3,8.49E-04
10610,685223816.8,3.14E-03
10611,547307500.1,2.50E-03
10612,863352097.3,3.96E-03
10613,833961145.9,3.83E-03
10614,835931807,3.84E-03
10615,897304759.4,4.12E-03
10616,591997939.8,2.71E-03
10617,780051064,3.58E-03
10618,255427261.2,1.16E-03
10619,420076788.7,1.92E-03
10620,354841334.9,1.61E-03
10621,159157016.8,7.11E-04
10622,912671611,4.19E-03
10623,623904852.4,2.86E-03
10624,1491623960,6.86E-03
10625,1230493886,5.65E-03
10626,2007584979,9.24E-03
10627,1774184127,8.16E-03
10628,2415949396,1.11E-02
10629,2258301451,1.04E-02
10630,2587467336,1.19E-02
10631,2671911101,1.23E-02
10632,2398019426,1.10E-02
10633,2696776113,1.24E-02
10634,1961918478,9.02E-03
10635,1466974382,6.73E-03
10636,900875383.8,4.12E-03
10637,425981433.4,1.93E-03
10638,391828356.3,1.77E-03
10639,696875032.9,3.18E-03
10640,912471977.5,4.17E-03
10641,921828091.3,4.21E-03
10642,720352736.1,3.28E-03
10643,401834252.7,1.81E-03
10644,403107752.4,1.82E-03
10645,874148531.7,4.00E-03
10646,1409603413,6.47E-03
10647,1834328546,8.43E-03
10648,2228205225,1.03E-02
10649,2521970813,1.16E-02
10650,2578127931,1.19E-02
10651,2407075138,1.11E-02
10652,2055743101,9.46E-03
10653,1538088290,7.07E-03
10654,925735148.8,4.25E-03
10655,426556350.3,1.94E-03
10656,392833846,1.79E-03
10657,696023484.7,3.19E-03
10658,867890207.6,3.98E-03
10659,841401457.2,3.86E-03
10660,608125889.9,2.78E-03
10661,323780527.3,1.47E-03
10662,428202326.2,1.95E-03
10663,941720879.9,4.32E-03
10664,1513052838,6.96E-03
10665,2024965405,9.32E-03
10666,2430037029,1.12E-02
10667,2683180546,1.24E-02
10668,2500106910,1.15E-02
10669,2218426495,1.02E-02
10670,2767624659,1.27E-02
10671,2767624670,1.27E-02
10672,2673631891,1.23E-02
10673,2487846498,1.15E-02
10674,2252924707,1.04E-02
10675,1888866318,8.69E-03
10676,1432504246,6.59E-03
10677,922706725,4.23E-03
10678,433090366.1,1.98E-03
10679,250898296.3,1.13E-03
10680,435798464.9,1.99E-03
10681,634706155.6,2.91E-03
10682,660913330.1,3.03E-03
10683,509725042.9,2.33E-03
10684,287223658.9,1.30E-03
10685,413380387.2,1.88E-03
10686,909450461.1,4.17E-03
10687,1461459928,6.72E-03
10688,1921181678,8.84E-03
10689,2228230215,1.03E-02
10690,2375863305,1.09E-02
10691,2319237246,1.07E-02
10692,2054351068,9.45E-03
10693,1700217275,7.81E-03
10694,1319045949,6.05E-03
10695,842692047.7,3.85E-03
10696,353138690.6,1.59E-03
10697,264048392,1.18E-03
10698,533343989.2,2.42E-03
10699,715950320.6,3.26E-03
10700,707742690.6,3.22E-03
10701,516148115,2.34E-03
10702,286489049.3,1.28E-03
10703,405014688.6,1.83E-03
10704,878082079.2,4.01E-03
10705,1387375330,6.37E-03
10706,1825620273,8.39E-03
10707,879760806,4.00E-03
10708,881260493.1,4.01E-03
10709,879869636.5,4.00E-03
10710,880059231.2,4.00E-03
10711,879760794.5,4.00E-03
10712,881238648.4,4.01E-03
10713,879993893.6,4.00E-03
10714,881260470.1,4.01E-03
10715,880059208.2,4.00E-03
10716,882737814.9,4.01E-03
10717,886293783.7,4.03E-03
10718,882933110.6,4.02E-03
10719,882737803.4,4.01E-03
10720,886250279.3,4.03E-03
10721,886293760.7,4.03E-03
10722,889805033.5,4.05E-03
10723,894528195.8,4.07E-03
10724,889957009.8,4.05E-03
10725,889805022,4.05E-03
10726,894506351.1,4.07E-03
10727,894528172.8,4.07E-03
10728,899228125.3,4.10E-03
10729,904316725.8,4.12E-03
10730,899271803.2,4.10E-03
10731,899228113.8,4.10E-03
10732,904338200.5,4.12E-03
10733,904316702.8,4.12E-03
10734,909425412.7,4.15E-03
10735,913969744.7,4.17E-03
10736,909339132.5,4.14E-03
10737,909425401.2,4.15E-03
10738,914034538.7,4.17E-03
10739,913969721.7,4.17E-03
10740,918577829.4,4.19E-03
10741,921452456.8,4.20E-03
10742,918340105,4.19E-03
10743,918577817.9,4.19E-03
10744,921560570.2,4.20E-03
10745,921452433.9,4.20E-03
10746,924434677.1,4.22E-03
10747,924298261.4,4.22E-03
10748,924023848.7,4.22E-03
10749,924434665.6,4.22E-03
10750,924449347.1,4.22E-03
10751,924298238.4,4.22E-03
10752,924313451.9,4.22E-03
10753,919998452.5,4.20E-03
10754,923772839,4.22E-03
10755,924313440.4,4.22E-03
10756,920149538.2,4.20E-03
10757,919998429.5,4.20E-03
10758,915814614.4,4.18E-03
10759,906890961.1,4.14E-03
10760,915274522,4.18E-03
10761,915814602.9,4.18E-03
10762,906976894.2,4.14E-03
10763,906890938.1,4.14E-03
10764,898056017.4,4.10E-03
10765,885717248.7,4.05E-03
10766,897689376,4.10E-03
10767,898056005.9,4.10E-03
10768,885738029.3,4.05E-03
10769,885717225.7,4.05E-03
10770,873402731.2,3.99E-03
10771,860812375.8,3.94E-03
10772,873404651.6,3.99E-03
10773,873402719.7,3.99E-03
10774,860746344.1,3.94E-03
10775,860812352.8,3.94E-03
10776,848180424.9,3.88E-03
10777,839538379,3.84E-03
10778,848615538.9,3.88E-03
10779,848180413.4,3.88E-03
10780,839429201.5,3.84E-03
10781,839538356,3.84E-03
10782,830810030,3.80E-03
10783,829187804.2,3.79E-03
10784,831548206.1,3.80E-03
10785,830810018.5,3.80E-03
10786,829056967,3.79E-03
10787,829187781.2,3.79E-03
10788,827433352.9,3.79E-03
10789,832760762.1,3.81E-03
10790,828193015.1,3.79E-03
10791,827433341.4,3.79E-03
10792,832651584.5,3.81E-03
10793,832760739.1,3.81E-03
10794,837997356.4,3.84E-03
10795,847216741,3.88E-03
10796,838453783,3.84E-03
10797,837997344.9,3.84E-03
10798,847129396.7,3.88E-03
10799,847216718,3.88E-03
10800,856344963.7,3.93E-03
10801,865253824.5,3.97E-03
10802,856367849.6,3.93E-03
10803,856344952.2,3.93E-03
10804,865253118.9,3.97E-03
10805,865253801.5,3.97E-03
10806,874137023,4.01E-03
10807,879596614.6,4.04E-03
10808,873813353.9,4.01E-03
10809,874137011.5,4.01E-03
10810,879660888,4.04E-03
10811,879596591.6,4.04E-03
10812,885118570.8,4.06E-03
10813,886114358.7,4.07E-03
10814,884643631,4.06E-03
10815,885118559.3,4.06E-03
10816,886178285.1,4.07E-03
10817,886114335.7,4.07E-03
10818,887173725.9,4.08E-03
10819,884401596.4,4.06E-03
10820,886785771.9,4.07E-03
10821,887173714.4,4.08E-03
10822,884422203.4,4.06E-03
10823,884401573.4,4.06E-03
10824,881628934.8,4.05E-03
10825,876628807.9,4.03E-03
10826,881458098.2,4.05E-03
10827,881628923.3,4.05E-03
10828,876519283.2,4.03E-03
10829,876628784.9,4.03E-03
10830,871520023.9,4.01E-03
10831,866393236,3.99E-03
10832,871674429.7,4.01E-03
10833,871520012.4,4.01E-03
10834,866001961.9,3.98E-03
10835,866393213,3.99E-03
10836,860875521,3.96E-03
10837,857288653,3.95E-03
10838,861701724,3.96E-03
10839,860875509.5,3.96E-03
10840,856377373,3.94E-03
10841,857288630,3.95E-03
10842,852789290.2,3.93E-03
10843,857735470,3.95E-03
10844,854590526.1,3.93E-03
10845,852789278.7,3.93E-03
10846,855979462.3,3.94E-03
10847,857735447,3.95E-03
10848,860920609.8,3.97E-03
10849,871813259.5,4.02E-03
10850,864758376.6,3.98E-03
10851,860920598.3,3.97E-03
10852,874799473.2,4.03E-03
10853,871813236.5,4.02E-03
10854,885682092.8,4.08E-03
10855,989983780.1,4.57E-03
10856,876376873.7,4.04E-03
10857,885682081.3,4.08E-03
10858,994156764.6,4.58E-03
10859,989983757.1,4.57E-03
10860,1098393965,5.07E-03
10861,1058409849,4.88E-03
10862,1172991579,5.41E-03
10863,1098393953,5.07E-03
10864,1162091401,5.36E-03
10865,1172991556,5.41E-03
10866,881542774.6,4.01E-03
10867,880233214.3,4.00E-03
10868,886597377.9,4.03E-03
10869,894701831.9,4.07E-03
10870,904295424.7,4.12E-03
10871,913710360.5,4.17E-03
10872,920911670.4,4.20E-03
10873,923497905.7,4.22E-03
10874,919047173.2,4.20E-03
10875,906070334,4.14E-03
10876,885373828.8,4.05E-03
10877,861205558.7,3.94E-03
10878,840646331.5,3.85E-03
10879,830554978.8,3.80E-03
10880,833867499.8,3.82E-03
10881,847608362.1,3.88E-03
10882,864930502.5,3.97E-03
10883,878862105.6,4.03E-03
10884,885315564.8,4.07E-03
10885,883841753.2,4.06E-03
10886,876524685.7,4.03E-03
10887,866982917.8,3.99E-03
10888,859005158.9,3.95E-03
10889,861618465,3.97E-03
10890,869330094.7,4.01E-03
10891,944862449.8,4.36E-03
10892,1285771005,5.93E-03
10893,1236572319,5.71E-03
10894,936975567.4,4.33E-03
10895,1236572330,5.71E-03
10896,907951602.3,4.19E-03
10897,1400211255,6.46E-03
10898,936975590.4,4.33E-03
10899,1257408968,5.81E-03
10900,880270474.1,4.00E-03
10901,880493663.5,4.00E-03
10902,880270485.6,4.00E-03
10903,880471841.8,4.00E-03
10904,880422635.5,4.00E-03
10905,880493686.5,4.00E-03
10906,880472732.5,4.00E-03
10907,880695523.5,4.00E-03
10908,879945765.6,4.00E-03
10909,880566097.5,4.00E-03
10910,880493655.1,4.00E-03
10911,880695512,4.00E-03
10912,880010559.6,4.00E-03
10913,880450150.7,4.00E-03
10914,879945742.6,4.00E-03
10915,880493632.1,4.00E-03
10916,879262016.4,3.99E-03
10917,877496682.7,3.99E-03
10918,879045778.1,3.99E-03
10919,879262004.9,3.99E-03
10920,877583136.4,3.99E-03
10921,877496659.7,3.99E-03
10922,875840330.1,3.98E-03
10923,873578906.1,3.97E-03
10924,875689244.4,3.98E-03
10925,875840318.6,3.98E-03
10926,873621866.9,3.97E-03
10927,873578883.1,3.97E-03
10928,871360616.4,3.96E-03
10929,868926609,3.95E-03
10930,871296343,3.96E-03
10931,871360604.9,3.96E-03
10932,868947736.6,3.95E-03
10933,868926586,3.95E-03
10934,866513382.2,3.93E-03
10935,864252131.7,3.92E-03
10936,866536094.6,3.93E-03
10937,866513370.7,3.93E-03
10938,864208280.2,3.92E-03
10939,864252108.7,3.92E-03
10940,861945815,3.91E-03
10941,860115849.4,3.90E-03
10942,862055513.2,3.91E-03
10943,861945803.5,3.91E-03
10944,860050164.7,3.90E-03
10945,860115826.4,3.90E-03
10946,858218463.8,3.90E-03
10947,857056824.8,3.89E-03
10948,858393141,3.90E-03
10949,858218452.3,3.90E-03
10950,856926161.1,3.89E-03
10951,857056801.8,3.89E-03
10952,855762092.7,3.88E-03
10953,855419530.5,3.88E-03
10954,856001922.4,3.89E-03
10955,855762081.2,3.88E-03
10956,855288693.2,3.88E-03
10957,855419507.5,3.88E-03
10958,854921868.4,3.88E-03
10959,855419522.1,3.88E-03
10960,855161698.2,3.88E-03
10961,854921856.9,3.88E-03
10962,855288684.9,3.88E-03
10963,855419499.1,3.88E-03
10964,855762075.9,3.88E-03
10965,857056799.7,3.89E-03
10966,856001905.7,3.89E-03
10967,855762064.4,3.88E-03
10968,856926136,3.89E-03
10969,857056776.7,3.89E-03
10970,858218430.3,3.90E-03
10971,860115981.1,3.90E-03
10972,858393281.1,3.90E-03
10973,858218418.8,3.90E-03
10974,860050296.5,3.90E-03
10975,860115958.1,3.90E-03
10976,861945938.4,3.91E-03
10977,864252073.2,3.92E-03
10978,862055463,3.91E-03
10979,861945926.9,3.91E-03
10980,864208221.7,3.92E-03
10981,864252050.2,3.92E-03
10982,866513488.9,3.93E-03
10983,868926533.8,3.95E-03
10984,866536027.7,3.93E-03
10985,866513477.4,3.93E-03
10986,868947834.9,3.95E-03
10987,868926510.8,3.95E-03
10988,871360532.8,3.96E-03
10989,873578814.2,3.97E-03
10990,871296432.9,3.96E-03
10991,871360521.3,3.96E-03
10992,873621775,3.97E-03
10993,873578791.2,3.97E-03
10994,875840403.4,3.98E-03
10995,877496747.6,3.99E-03
10996,875689317.7,3.98E-03
10997,875840391.9,3.98E-03
10998,877583027.8,3.99E-03
10999,877496724.6,3.99E-03
11000,879262072.9,3.99E-03
11001,879945813.8,4.00E-03
11002,879045834.6,3.99E-03
11003,879262061.4,3.99E-03
11004,880010607.8,4.00E-03
11005,879945790.8,4.00E-03
11006,880695563.3,4.00E-03
11007,880565963.8,4.00E-03
11008,880695551.8,4.00E-03
11009,879686381.5,4.00E-03
11010,880472701,4.00E-03
11011,877237472.1,3.98E-03
11012,873428167.5,3.97E-03
11013,868906349.1,3.95E-03
11014,864340517.2,3.92E-03
11015,860334540.1,3.91E-03
11016,857340668.1,3.89E-03
11017,855746866.7,3.88E-03
11018,855746858.3,3.88E-03
11019,857340816.5,3.89E-03
11020,860334671.8,3.91E-03
11021,864340458.7,3.92E-03
11022,868906273.9,3.95E-03
11023,873406415.8,3.97E-03
11024,877237363.5,3.98E-03
11025,879686429.6,4.00E-03
11026,880270451,4.00E-03
11027,880059185.1,4.00E-03
11028,880270462.5,4.00E-03
11029,879994044,4.00E-03
11030,880400952.7,4.00E-03
11031,880059208.1,4.00E-03
11032,880233191.2,4.00E-03
11033,1098957423,5.07E-03
11034,990633703.7,4.57E-03
11035,1058929971,4.89E-03
11036,1173273253,5.41E-03
11037,1098957412,5.07E-03
11038,994763368.8,4.59E-03
11039,1162351416,5.36E-03
11040,990633680.7,4.57E-03
11041,1173273230,5.41E-03
11042,886418603.1,4.09E-03
11043,872008416.5,4.02E-03
11044,877156720.7,4.04E-03
11045,886418591.6,4.09E-03
11046,874994612.8,4.03E-03
11047,872008393.5,4.02E-03
11048,860574205.3,3.96E-03
11049,857519023.6,3.95E-03
11050,864411972,3.98E-03
11051,860574193.8,3.96E-03
11052,855763015.9,3.94E-03
11053,857519000.6,3.95E-03
11054,852702801.9,3.93E-03
11055,857245484,3.95E-03
11056,854504037.8,3.93E-03
11057,852702790.4,3.93E-03
11058,856312544.3,3.94E-03
11059,857245461,3.95E-03
11060,860854011.7,3.96E-03
11061,866350067,3.98E-03
11062,861680214.8,3.96E-03
11063,860854000.2,3.96E-03
11064,865958793,3.98E-03
11065,866350044,3.98E-03
11066,871476855,4.01E-03
11067,876563979.2,4.03E-03
11068,871631260.8,4.01E-03
11069,871476843.5,4.01E-03
11070,876476114.3,4.03E-03
11071,876563956.2,4.03E-03
11072,881585765.9,4.05E-03
11073,884336594.2,4.06E-03
11074,881393096.1,4.05E-03
11075,881585754.4,4.05E-03
11076,884357201.2,4.06E-03
11077,884336571.2,4.06E-03
11078,887108723.7,4.07E-03
11079,886027696.8,4.07E-03
11080,886699110.1,4.07E-03
11081,887108712.2,4.07E-03
11082,886091796.8,4.07E-03
11083,886027673.9,4.07E-03
11084,885031909,4.06E-03
11085,879509952.7,4.04E-03
11086,884556969.2,4.06E-03
11087,885031897.5,4.06E-03
11088,879552393,4.04E-03
11089,879509929.7,4.04E-03
11090,874028527.9,4.01E-03
11091,865145329.4,3.97E-03
11092,873705032.4,4.01E-03
11093,874028516.4,4.01E-03
11094,865144623.8,3.97E-03
11095,865145306.5,3.97E-03
11096,856258128.3,3.93E-03
11097,847151565.3,3.88E-03
11098,856281014.2,3.93E-03
11099,856258116.8,3.93E-03
11100,847064221,3.88E-03
11101,847151542.3,3.88E-03
11102,837932180.7,3.84E-03
11103,832738732.3,3.81E-03
11104,838388433.8,3.84E-03
11105,837932169.2,3.84E-03
11106,832629728.2,3.81E-03
11107,832738709.3,3.81E-03
11108,827432982.7,3.79E-03
11109,829209093.7,3.79E-03
11110,828192818.5,3.79E-03
11111,827432971.2,3.79E-03
11112,829078256.5,3.79E-03
11113,829209070.7,3.79E-03
11114,830874638.9,3.80E-03
11115,839624821.1,3.84E-03
11116,831634648.2,3.80E-03
11117,830874627.4,3.80E-03
11118,839515643.6,3.84E-03
11119,839624798.1,3.84E-03
11120,848266867,3.88E-03
11121,860898644.4,3.94E-03
11122,848723640.6,3.88E-03
11123,848266855.5,3.88E-03
11124,860854445.9,3.94E-03
11125,860920281.1,3.94E-03
11126,873489173.3,3.99E-03
11127,885803690.8,4.05E-03
11128,873491093.7,3.99E-03
11129,873489161.8,3.99E-03
11130,885824471.4,4.05E-03
11131,885803667.8,4.05E-03
11132,898142459.5,4.11E-03
11133,906955743.5,4.14E-03
11134,897775818.1,4.10E-03
11135,898142448,4.11E-03
11136,907041676.6,4.15E-03
11137,906955720.5,4.14E-03
11138,915879570.3,4.18E-03
11139,920041748.8,4.20E-03
11140,915317644.7,4.18E-03
11141,915879558.8,4.18E-03
11142,920192834.5,4.20E-03
11143,920041725.8,4.20E-03
11144,924356574.7,4.22E-03
11145,924319724.4,4.22E-03
11146,923816135.3,4.22E-03
11147,924356563.2,4.22E-03
11148,924470983.6,4.22E-03
11149,924319701.4,4.22E-03
11150,924456313.7,4.22E-03
11151,921474093.4,4.20E-03
11152,924045311.8,4.22E-03
11153,924456302.2,4.22E-03
11154,921582206.8,4.20E-03
11155,921474070.4,4.20E-03
11156,918599466,4.19E-03
11157,913991381.2,4.17E-03
11158,918340081.9,4.19E-03
11159,918599454.5,4.19E-03
11160,914034515.6,4.17E-03
11161,913991358.2,4.17E-03
11162,909425389.6,4.15E-03
11163,904316702.7,4.12E-03
11164,909339109.4,4.14E-03
11165,909425378.1,4.15E-03
11166,904338177.4,4.12E-03
11167,904316679.7,4.12E-03
11168,899228102.2,4.10E-03
11169,894528172.7,4.07E-03
11170,899271780.1,4.10E-03
11171,899228090.7,4.10E-03
11172,894506328,4.07E-03
11173,894528149.7,4.07E-03
11174,889805010.4,4.05E-03
11175,886272101,4.03E-03
11176,889935327.1,4.05E-03
11177,889804998.9,4.05E-03
11178,886250256.2,4.03E-03
11179,886272078,4.03E-03
11180,882737791.8,4.01E-03
11181,881260470,4.01E-03
11182,882933087.5,4.02E-03
11183,882737780.3,4.01E-03
11184,881260285,4.01E-03
11185,881260447,4.01E-03
11186,879782442.6,4.00E-03
11187,879891273.1,4.00E-03
11188,879782431.1,4.00E-03
11189,945490696.3,4.36E-03
11190,1286139387,5.94E-03
11191,869568553.7,4.01E-03
11192,861402018.6,3.97E-03
11193,858940330.3,3.95E-03
11194,866961408.5,3.99E-03
11195,876459683.5,4.03E-03
11196,883776924.5,4.06E-03
11197,885228903,4.06E-03
11198,878753784.1,4.03E-03
11199,864843667.1,3.97E-03
11200,847543186.5,3.88E-03
11201,833845470,3.82E-03
11202,830598101.5,3.80E-03
11203,840710940.4,3.85E-03
11204,861292000.8,3.94E-03
11205,885460270.9,4.05E-03
11206,906135116.4,4.14E-03
11207,919090469.5,4.20E-03
11208,923519542.3,4.22E-03
11209,920911647.3,4.20E-03
11210,913710337.4,4.17E-03
11211,904295401.6,4.12E-03
11212,894701808.8,4.07E-03
11213,886597354.8,4.03E-03
11214,881542751.5,4.01E-03
11215,1236572469,5.71E-03
11216,936867411.1,4.33E-03
11217,1236572481,5.71E-03
11218,907865105.6,4.19E-03
11219,1400341363,6.47E-03
11220,936867434.1,4.33E-03
11221,1257712346,5.81E-03
11222,608354862.3,2.81E-03
11223,603394804.6,2.79E-03
11224,794194963,3.67E-03
11225,608354850.8,2.81E-03
11226,565555325,2.61E-03
11227,603394781.6,2.79E-03
11228,560595267.3,2.59E-03
11229,558472628.2,2.58E-03
11230,754406131.8,3.48E-03
11231,560595255.8,2.59E-03
11232,518813735.2,2.40E-03
11233,558472605.2,2.58E-03
11234,516691096.1,2.39E-03
11235,525441618.4,2.43E-03
11236,709678892.5,3.28E-03
11237,516691084.6,2.39E-03
11238,485284552.6,2.24E-03
11239,525441595.4,2.43E-03
11240,494013415.2,2.28E-03
11241,506576041.9,2.34E-03
11242,686914573,3.17E-03
11243,494013403.7,2.28E-03
11244,465747526,2.15E-03
11245,506576018.9,2.34E-03
11246,478310152.7,2.21E-03
11247,493341983.3,2.28E-03
11248,669890069.6,3.09E-03
11249,478310141.2,2.21E-03
11250,452123593.1,2.09E-03
11251,493341960.3,2.28E-03
11252,467155423.7,2.16E-03
11253,484114966.3,2.24E-03
11254,658042230.8,3.04E-03
11255,467155412.2,2.16E-03
11256,442831597,2.04E-03
11257,484114943.3,2.24E-03
11258,459791139.5,2.12E-03
11259,478331839,2.21E-03
11260,650179773.9,3.00E-03
11261,459791128,2.12E-03
11262,437048469.7,2.02E-03
11263,478331816,2.21E-03
11264,455589169.1,2.10E-03
11265,475516088.4,2.20E-03
11266,645522950.1,2.98E-03
11267,455589157.6,2.10E-03
11268,434276038.5,2.01E-03
11269,475516065.4,2.20E-03
11270,454202957.7,2.10E-03
11271,475516096.8,2.20E-03
11272,644006780.6,2.97E-03
11273,454202946.2,2.10E-03
11274,434276046.8,2.01E-03
11275,475516073.8,2.20E-03
11276,455589185.9,2.10E-03
11277,478331864,2.21E-03
11278,645522966.9,2.98E-03
11279,455589174.4,2.10E-03
11280,437070154.4,2.02E-03
11281,478331841.1,2.21E-03
11282,459812832.6,2.12E-03
11283,484115008,2.24E-03
11284,650158147.6,3.00E-03
11285,459812821.1,2.12E-03
11286,442853298.4,2.04E-03
11287,484114985.1,2.24E-03
11288,467155473.9,2.16E-03
11289,493342041.8,2.28E-03
11290,658063940.6,3.04E-03
11291,467155462.4,2.16E-03
11292,452123651.6,2.09E-03
11293,493342018.8,2.28E-03
11294,478310219.5,2.21E-03
11295,507009310.8,2.34E-03
11296,669673539.7,3.09E-03
11297,478310208,2.21E-03
11298,465964198,2.15E-03
11299,507009287.8,2.34E-03
11300,494684949,2.28E-03
11301,526373076.7,2.43E-03
11302,686481462.8,3.17E-03
11303,494684937.5,2.28E-03
11304,485782817.3,2.24E-03
11305,526373053.7,2.43E-03
11306,517492604.7,2.39E-03
11307,558949249.9,2.58E-03
11308,709743971.9,3.28E-03
11309,517492593.2,2.39E-03
11310,519095419.7,2.40E-03
11311,558949226.9,2.58E-03
11312,560552064.9,2.59E-03
11313,603243312.2,2.79E-03
11314,754601185.9,3.48E-03
11315,560552053.4,2.59E-03
11316,565447152,2.61E-03
11317,603243289.2,2.79E-03
11318,608160058.9,2.81E-03
11319,794216756.4,3.67E-03
11320,608160047.4,2.81E-03
11321,945184630.5,4.36E-03
11322,905612396.1,4.18E-03
11323,871151847.1,4.02E-03
11324,850228600.7,3.93E-03
11325,834590317.1,3.85E-03
11326,824107038.4,3.80E-03
11327,817370885,3.77E-03
11328,814013642.4,3.76E-03
11329,814013650.7,3.76E-03
11330,817370910.1,3.77E-03
11331,824107080.2,3.80E-03
11332,834417098.2,3.85E-03
11333,849167351.4,3.92E-03
11334,869852358,4.02E-03
11335,905417567.6,4.18E-03
11336,945574630.2,4.37E-03
